V12 S4                                  
   1.00000000000000     
    -0.0007070887618974    0.0001008828428660   -4.5221408870568043
    -4.7139963139937873   -4.7124630951166235   -2.2618324826637624
    -4.7140136092035343    4.7126037034160477   -2.2618163553408954
   V    S 
    12     4
Direct
  0.1471690609935721  0.1826600366319281  0.0000935766379345
  0.3313458808951240  0.8160513403529009  0.9996511921154660
  0.8528810087574485  0.9999011516102697  0.8173392188907610
  0.6686288686478181  0.0003422841732205  0.1839622829289039
  0.5437235199769094  0.3996562551846626  0.9999491600260472
  0.9441071526151297  0.5997825861732105  0.0000980426862092
  0.4563104294827630  0.0000627476806211  0.6003290902627073
  0.0558715243613850  0.9999133983332007  0.4002076659986366
  0.0000057574777589  0.3580921646595220  0.6419165528906809
  0.9999735889133915  0.6425406711687103  0.3574710191750294
  0.3576726175129868  0.6426860610390539  0.6422637667516391
  0.6423280285592884  0.3577236723922020  0.3573116634339696
  0.5000139009852005  0.2879397880018532  0.7120552971881433
  0.4999832021551104  0.7123442847168072  0.2876466885943875
  0.7883775355807597  0.7122920465835118  0.7119938765266371
  0.2116079230853539  0.2880115112983254  0.2877109058928401
 
  0.00000000E+00  0.00000000E+00  0.00000000E+00
  0.00000000E+00  0.00000000E+00  0.00000000E+00
  0.00000000E+00  0.00000000E+00  0.00000000E+00
  0.00000000E+00  0.00000000E+00  0.00000000E+00
  0.00000000E+00  0.00000000E+00  0.00000000E+00
  0.00000000E+00  0.00000000E+00  0.00000000E+00
  0.00000000E+00  0.00000000E+00  0.00000000E+00
  0.00000000E+00  0.00000000E+00  0.00000000E+00
  0.00000000E+00  0.00000000E+00  0.00000000E+00
  0.00000000E+00  0.00000000E+00  0.00000000E+00
  0.00000000E+00  0.00000000E+00  0.00000000E+00
  0.00000000E+00  0.00000000E+00  0.00000000E+00
  0.00000000E+00  0.00000000E+00  0.00000000E+00
  0.00000000E+00  0.00000000E+00  0.00000000E+00
  0.00000000E+00  0.00000000E+00  0.00000000E+00
  0.00000000E+00  0.00000000E+00  0.00000000E+00
