Ca1 Fe4 S6 O24
1.0
7.597101 0.145645 4.496767
2.622110 7.128135 4.528742
0.201731 0.179175 8.831862
Ca Fe S O
1 4 6 24
direct
0.310321 0.785904 0.582721 Ca
0.654075 0.640822 0.647514 Fe
0.136509 0.145677 0.141597 Fe
0.841771 0.846470 0.852975 Fe
0.357907 0.351515 0.348621 Fe
0.952739 0.249474 0.528944 S
0.452501 0.037420 0.744687 S
0.539409 0.962977 0.245997 S
0.747360 0.452486 0.043825 S
0.248111 0.535137 0.956827 S
0.046054 0.747652 0.458198 S
0.400826 0.577088 0.771217 O
0.919519 0.287821 0.044334 O
0.794718 0.412525 0.569720 O
0.063341 0.915835 0.290832 O
0.583189 0.780135 0.402837 O
0.308726 0.042141 0.928937 O
0.680566 0.951018 0.064780 O
0.208153 0.582781 0.422908 O
0.077879 0.704395 0.941949 O
0.405242 0.222352 0.596080 O
0.936396 0.074658 0.694935 O
0.595200 0.419796 0.226585 O
0.957219 0.240331 0.366735 O
0.458038 0.890581 0.706158 O
0.349481 0.995106 0.262139 O
0.690882 0.493016 0.893599 O
0.222963 0.371446 0.985749 O
0.871890 0.728958 0.507953 O
0.131662 0.254202 0.493203 O
0.638517 -0.007884 0.740297 O
0.530324 0.113581 0.277458 O
0.780606 0.614502 0.009499 O
0.294421 0.502707 0.109127 O
0.045228 0.763533 0.616959 O
