Co4 P8 O24                              
   1.00000000000000     
     4.5701988661030590    4.1288548062715869   -3.7019273645367936
    -4.5714799572020901    4.1359363417850599    3.6985744006468235
     4.5838971411563820   -4.1264762912011062    7.4965573108261729
   Co   P    O 
     4     8    24
Direct
  0.8045917299271564  0.5550101659547804  0.7506865757610757
  0.1967952846753047  0.4470365204467835  0.2489152309187469
  0.0008056280764529  0.4998707840494138  0.5003151524732553
  0.9989343181006672  0.0003876288334216  0.9996516388112104
  0.2722012409003222  0.2274585836203086  0.5231414715995784
  0.7038054236670545  0.2488225832661204  0.9768910672534084
  0.7288745636574988  0.7724666567174348  0.4773789687888159
  0.2952553736040310  0.7516495197844345  0.0224464637994043
  0.9948055808650335  0.1887996104300337  0.6968076241878203
  0.4921801989604896  0.7981246529636559  0.8032542929932613
  0.0048679540319509  0.8108555128813718  0.3030674898976115
  0.5075521327877224  0.2014023923861582  0.1971453881068785
  0.5093361046238217  0.3424953951683514  0.5921565543849804
  0.7503853217855450  0.4171754402742148  0.9082486186018394
  0.4920130858763943  0.6560946531648916  0.4085602439953527
  0.2466966756302083  0.5825731730507010  0.0901963411800968
  0.1301530925073339  0.3061442918769025  0.4174673215711024
  0.8881077934496704  0.2122261865753995  0.0826000429241086
  0.8728692398005604  0.6954893909794262  0.5834110811247419
  0.1124233548333318  0.7899563057246933  0.9165770779010305
  0.1909484781494807  0.1912896086558285  0.6551066734820690
  0.5362613020702079  0.0358091050301570  0.8449020287703370
  0.8087874167661285  0.8082211764620258  0.3448895607110138
  0.4632990588201221  0.9636076149578510  0.1552755419540409
  0.0387069124916745  0.1527081617726373  0.8468494113529719
  0.3059605162803272  0.6918870053429158  0.6533697879224781
  0.9611514623730407  0.8472899910026392  0.1531279332156437
  0.6943316943642359  0.3077769828597776  0.3468409237381400
  0.9620264418544359  0.3806872571111467  0.6780126227838877
  0.7029987096687209  0.7843197754671289  0.8220999887318896
  0.0374483339465002  0.6187517692337948  0.3217052152178814
  0.2965867642575035  0.2149121072317400  0.1786387282610029
  0.7837016459905464  0.0027749468718612  0.5639030122634924
  0.4397690904709124  0.7203082870407714  0.9364497535504591
  0.2157917270711165  0.9965445765041846  0.4362139243904324
  0.5595763476644763  0.2790721863070355  0.0636962473799402
 
  0.00000000E+00  0.00000000E+00  0.00000000E+00
  0.00000000E+00  0.00000000E+00  0.00000000E+00
  0.00000000E+00  0.00000000E+00  0.00000000E+00
  0.00000000E+00  0.00000000E+00  0.00000000E+00
  0.00000000E+00  0.00000000E+00  0.00000000E+00
  0.00000000E+00  0.00000000E+00  0.00000000E+00
  0.00000000E+00  0.00000000E+00  0.00000000E+00
  0.00000000E+00  0.00000000E+00  0.00000000E+00
  0.00000000E+00  0.00000000E+00  0.00000000E+00
  0.00000000E+00  0.00000000E+00  0.00000000E+00
  0.00000000E+00  0.00000000E+00  0.00000000E+00
  0.00000000E+00  0.00000000E+00  0.00000000E+00
  0.00000000E+00  0.00000000E+00  0.00000000E+00
  0.00000000E+00  0.00000000E+00  0.00000000E+00
  0.00000000E+00  0.00000000E+00  0.00000000E+00
  0.00000000E+00  0.00000000E+00  0.00000000E+00
  0.00000000E+00  0.00000000E+00  0.00000000E+00
  0.00000000E+00  0.00000000E+00  0.00000000E+00
  0.00000000E+00  0.00000000E+00  0.00000000E+00
  0.00000000E+00  0.00000000E+00  0.00000000E+00
  0.00000000E+00  0.00000000E+00  0.00000000E+00
  0.00000000E+00  0.00000000E+00  0.00000000E+00
  0.00000000E+00  0.00000000E+00  0.00000000E+00
  0.00000000E+00  0.00000000E+00  0.00000000E+00
  0.00000000E+00  0.00000000E+00  0.00000000E+00
  0.00000000E+00  0.00000000E+00  0.00000000E+00
  0.00000000E+00  0.00000000E+00  0.00000000E+00
  0.00000000E+00  0.00000000E+00  0.00000000E+00
  0.00000000E+00  0.00000000E+00  0.00000000E+00
  0.00000000E+00  0.00000000E+00  0.00000000E+00
  0.00000000E+00  0.00000000E+00  0.00000000E+00
  0.00000000E+00  0.00000000E+00  0.00000000E+00
  0.00000000E+00  0.00000000E+00  0.00000000E+00
  0.00000000E+00  0.00000000E+00  0.00000000E+00
  0.00000000E+00  0.00000000E+00  0.00000000E+00
  0.00000000E+00  0.00000000E+00  0.00000000E+00
