Ca54 Si18 O90                           
   1.00000000000000     
    11.5755898557509571   -0.0222446666806847   -0.8969782183620655
    -0.3001199565049416   13.7100984811764022   -3.7085888830319536
    -0.0253077662254148    0.0721350281177049   13.6331792330697201
   Ca   Si   O 
    54    18    90
Direct
  0.2900955550567446  0.9964197646039281  0.0270391011369355
  0.7099057107463196  0.0035807966098815  0.9729595468662922
  0.6446676574683821  0.8474536958633294  0.3475302277046310
  0.3553317122595132  0.1525439817982033  0.6524673268232846
  0.3215804966322224  0.6783031824108647  0.6667354298654118
  0.6784180841953713  0.3216949498018096  0.3332622137117340
  0.1537667821675086  0.8353108764369779  0.8309281514943692
  0.8462322402383506  0.1646890208712719  0.1690721089912088
  0.8087150832511654  0.6723149245107294  0.1841442019459407
  0.1912842581139316  0.3276848261581407  0.8158550275340204
  0.6680186656615064  0.5896848541864586  0.3510834298950627
  0.3319811599709581  0.4103163552406244  0.6489164562952183
  0.3512797197249427  0.9177012203407457  0.6658452139309858
  0.6487204923137568  0.0822971351881492  0.3341555773336609
  0.9452213815030674  0.8338375897563282  0.3818441782719191
  0.0547780519480270  0.1661646687219260  0.6181552892923037
  0.3546144476803050  0.8194474651428294  0.2770191891573930
  0.6453860881958349  0.1805513765738453  0.7229809717184352
  0.6173580260950544  0.6528525986519753  0.6958931430028841
  0.3826425635001698  0.3471482686940419  0.3041073967196226
  0.0330616405918320  0.6651329979672198  0.6326924266762717
  0.9669396116517248  0.3348685792181030  0.3673064080955157
  0.9511764531971920  0.6029935029449618  0.3756381319474116
  0.0488203532786784  0.3970138342173541  0.6243618076572659
  0.6399090206416673  0.9455636868629043  0.7104367437003916
  0.3600908467922679  0.0544361360305174  0.2895632103246442
  0.3786259989793805  0.5865345105222985  0.2880403397517597
  0.6213715016101489  0.4134635395605883  0.7119603906577368
  0.0312143550095954  0.8964254204187085  0.6244752541490470
  0.9687876362946213  0.1035744533804390  0.3755239434232607
  0.5349030432245314  0.9081189210953440  0.1482178717438387
  0.4650974050593106  0.0918815299370479  0.8517831981709065
  0.7851947613120771  0.7584576733785653  0.5346691747285206
  0.2148044897479195  0.2415426584438976  0.4653320235403768
  0.1922814247451399  0.7532436628112791  0.4839556932935736
  0.8077181108633482  0.2467563447696506  0.5160430656305124
  0.4621660016817444  0.5846000844494625  0.8490249913885108
  0.5378343140557931  0.4154004165893284  0.1509749928502160
  0.2989237044890345  0.5122260793883768  0.0414319242874228
  0.7010766477378780  0.4877737480937725  0.9585678636464152
  0.2741370820883589  0.7633086573367578  0.0306198528631043
  0.7258645457370747  0.2366885035291091  0.9693797566615174
  0.6961777615130487  0.7239136046030552  0.9770762880608004
  0.3038215967211997  0.2760871305354229  0.0229240087229741
  0.1266156604964976  0.9196129310904055  0.1833962174014800
  0.8733897905730288  0.0803851978182166  0.8165994825819283
  0.8615797011705268  0.5743059321029946  0.8152361224483329
  0.1384200547683250  0.4256937747073266  0.1847640493330260
  0.9803605881941522  0.7386538120610169  0.0099173693803962
  0.0196386245846369  0.2613447025039335  0.9900831246840909
  0.9999997776532581  0.9999998467621225  0.0000011536148392
  0.9999999774068655  0.4999990306164435  0.9999999257217027
  0.5000011577627390  0.9999992301828229  0.5000001594887920
  0.5000004945102674  0.4999997727625143  0.5000002939704871
  0.1705564925393261  0.5836178288708140  0.8348054859845533
  0.8294442788112946  0.4163831327101946  0.1651953885675681
  0.5260502886335487  0.6565372859378087  0.1286035810108928
  0.4739493101631922  0.3434626691581002  0.8713959372519540
  0.8398541866719711  0.9208522136864019  0.1822027841798928
  0.1601447117168036  0.0791486497136376  0.8177986935170978
  0.1998047567435393  0.9815977654625954  0.4537623633032766
  0.8001962780448295  0.0184016162410288  0.5462379785216598
  0.8080030964354776  0.5024162842360056  0.5506575639324609
  0.1919965889221942  0.4975839989024635  0.4493421086580085
  0.4758466406720316  0.8438307534241218  0.8775816000676286
  0.5241531681662934  0.1561694504530848  0.1224183695181367
  0.8475731694622866  0.8186283450510743  0.7956654686776119
  0.1524268432168085  0.1813705097599012  0.2043338908597434
  0.1255727154986275  0.6784453111629603  0.2166927936904273
  0.8744268178292671  0.3215550268032956  0.7833079984610052
  0.5078598552823408  0.7529765877464669  0.4954131187364794
  0.4921401149541751  0.2470235533186056  0.5045871073428714
  0.9669001148497856  0.8055873332540315  0.7383634088814688
  0.0330989311205911  0.1944101997145395  0.2616340054612039
  0.4872989112477981  0.7331575715890466  0.8074350201184188
  0.5127026215180877  0.2668426921071614  0.1925663302693010
  0.3468419780337300  0.8524840785646290  0.9191759669794379
  0.6531567238674256  0.1475176089612873  0.0808222223633308
  0.8426228230693340  0.9328075872978019  0.8605713614251442
  0.1573779463209206  0.0671915507193859  0.1394276130309180
  0.7774005377341453  0.7306613679829610  0.3567978946062524
  0.2225976920827790  0.2693399182620766  0.6432027651732994
  0.4946276729778631  0.9445257568662981  0.3237021588360420
  0.5053732809268396  0.0554755088523322  0.6762983808862018
  0.5786229501808506  0.8683415084800288  0.9730793373069844
  0.4213739528782412  0.1316589341607113  0.0269227415773372
  0.7382402493745630  0.7930321872717698  0.7083514312940764
  0.2617589243386149  0.2069670189665445  0.2916486876229030
  0.3326470484889725  0.9060272814637003  0.1448412670364903
  0.6673524503430173  0.0939720750831086  0.8551592387614235
  0.9913754407979951  0.7409240683756835  0.5052245275405056
  0.0086272146278858  0.2590736745386977  0.4947717091219985
  0.4895959512563834  0.9215729656415022  0.8090714009922024
  0.5104057198708247  0.0784263992775678  0.1909279029150994
  0.8417584360116734  0.7450825233334299  0.8700943219830535
  0.1582422759945104  0.2549167753408597  0.1299062813375826
  0.1753302144289819  0.6040310845802921  0.5270306329738332
  0.8246710264450243  0.3959687901949138  0.4729705409124065
  0.6840832548146949  0.5011858076949167  0.5991626181011043
  0.3159172170886890  0.4988148264520618  0.4008370599312627
  0.8166980205142877  0.5862055253962524  0.4891067605602473
  0.1833015733250747  0.4137953914582368  0.5108934591487042
  0.6631369462503045  0.5682921863596633  0.8239701583445509
  0.3368638030094431  0.4317083051265840  0.1760307616865759
  0.8416594189129754  0.6087074630284519  0.0141612784574789
  0.1583419032486617  0.3912926593981254  0.9858391515255249
  0.9145582525570575  0.5272814989807699  0.6433221611196558
  0.0854418627415043  0.4727187208614936  0.3566778011448974
  0.7211554970804173  0.9421626321570784  0.2387849789098624
  0.2788446769767035  0.0578363957245074  0.7612174676242915
  0.0524962052810451  0.5983282902448934  0.8951315597799621
  0.9475048105236965  0.4016707372606660  0.1048697254961581
  0.8395953239801486  0.8082579899095990  0.1141216595878731
  0.1604030431147052  0.1917423906587743  0.8858778371697582
  0.8529780884500155  0.9932289925017415  0.1073305445183124
  0.1470189547171472  0.0067721108886829  0.8926707504695273
  0.1975051150056899  0.8177010312157265  0.6652760498201786
  0.8024925585519256  0.1822982940025284  0.3347229884363827
  0.1047326776090571  0.8603366924777873  0.0000969928471974
  0.8952651456734060  0.1396625340651099  0.9999025088577795
  0.4427478919368824  0.5487235514396716  0.6625403405849681
  0.5572507539496101  0.4512759119313472  0.3374590493968412
  0.9516218667463079  0.9408102380996155  0.2683167603776440
  0.0483786470467038  0.0591888925058726  0.7316824836110314
  0.3898513823623801  0.7613976956665383  0.5536133201700366
  0.6101479049816803  0.2386014865091042  0.4463853392811927
  0.2331558809714522  0.9486001799930364  0.3361808065667589
  0.7668443995603340  0.0513986149185470  0.6638192951628170
  0.5569176662288129  0.6103195562355026  0.0110794366886822
  0.4430820184102586  0.3896818843760173  0.9889199263556208
  0.3873110776415416  0.6751288866209180  0.1372417865028339
  0.6126879824115434  0.3248712942767327  0.8627577407356597
  0.9996191329165143  0.6919925894198897  0.2630872701285227
  0.0003809281919800  0.3080089124789254  0.7369149147288283
  0.3128701694573479  0.9834609544934665  0.5320416620246036
  0.6871307237932527  0.0165382766579825  0.4679588547716804
  0.1394526822032276  0.7554096960930252  0.1479146249775454
  0.8605462976479359  0.2445900489777273  0.8520854770960042
  0.2818233075337133  0.6049242834590274  0.9200719936828676
  0.7181783775685844  0.3950782540970010  0.0799290053851180
  0.2267376065795972  0.6980011289061281  0.3112799645815443
  0.7732630620811776  0.3019991486654376  0.6887199823112269
  0.1096031648959368  0.9025042887051598  0.4739202951400543
  0.8903976965452074  0.0974949240796903  0.5260800440809419
  0.1376410692095718  0.5700666735236197  0.1416742570203482
  0.8623574464221377  0.4299334964550852  0.8583271746697534
  0.5869101507615682  0.8534824310978522  0.5352953820352866
  0.4130885503273731  0.1465183107573438  0.4647062287596953
  0.8552634422510650  0.9108281716998405  0.5278286745566234
  0.1447377011988706  0.0891710660335789  0.4721725156439405
  0.1734531797592638  0.6643590862379085  0.7684808819703974
  0.8265468034017189  0.3356417526621343  0.2315192101499406
  0.6033023868425076  0.7568364924412592  0.1676870335654641
  0.3966971326269260  0.2431636012657705  0.8323133020335689
  0.4829055293780868  0.7342223461612818  0.3720089381774443
  0.5170964089010681  0.2657774229961518  0.6279906360225809
  0.5835935690071707  0.6614105865177962  0.5160835198047593
  0.4164071943746563  0.3385903639024264  0.4839173372064280
  0.8201698029939735  0.5252228023513936  0.2405004050141741
  0.1798317407208714  0.4747801622286261  0.7595006475593209
  0.5596442529621228  0.5805480337786477  0.1971224255423820
  0.4403559543545583  0.4194511236463470  0.8028759584110432
 
  0.00000000E+00  0.00000000E+00  0.00000000E+00
  0.00000000E+00  0.00000000E+00  0.00000000E+00
  0.00000000E+00  0.00000000E+00  0.00000000E+00
  0.00000000E+00  0.00000000E+00  0.00000000E+00
  0.00000000E+00  0.00000000E+00  0.00000000E+00
  0.00000000E+00  0.00000000E+00  0.00000000E+00
  0.00000000E+00  0.00000000E+00  0.00000000E+00
  0.00000000E+00  0.00000000E+00  0.00000000E+00
  0.00000000E+00  0.00000000E+00  0.00000000E+00
  0.00000000E+00  0.00000000E+00  0.00000000E+00
  0.00000000E+00  0.00000000E+00  0.00000000E+00
  0.00000000E+00  0.00000000E+00  0.00000000E+00
  0.00000000E+00  0.00000000E+00  0.00000000E+00
  0.00000000E+00  0.00000000E+00  0.00000000E+00
  0.00000000E+00  0.00000000E+00  0.00000000E+00
  0.00000000E+00  0.00000000E+00  0.00000000E+00
  0.00000000E+00  0.00000000E+00  0.00000000E+00
  0.00000000E+00  0.00000000E+00  0.00000000E+00
  0.00000000E+00  0.00000000E+00  0.00000000E+00
  0.00000000E+00  0.00000000E+00  0.00000000E+00
  0.00000000E+00  0.00000000E+00  0.00000000E+00
  0.00000000E+00  0.00000000E+00  0.00000000E+00
  0.00000000E+00  0.00000000E+00  0.00000000E+00
  0.00000000E+00  0.00000000E+00  0.00000000E+00
  0.00000000E+00  0.00000000E+00  0.00000000E+00
  0.00000000E+00  0.00000000E+00  0.00000000E+00
  0.00000000E+00  0.00000000E+00  0.00000000E+00
  0.00000000E+00  0.00000000E+00  0.00000000E+00
  0.00000000E+00  0.00000000E+00  0.00000000E+00
  0.00000000E+00  0.00000000E+00  0.00000000E+00
  0.00000000E+00  0.00000000E+00  0.00000000E+00
  0.00000000E+00  0.00000000E+00  0.00000000E+00
  0.00000000E+00  0.00000000E+00  0.00000000E+00
  0.00000000E+00  0.00000000E+00  0.00000000E+00
  0.00000000E+00  0.00000000E+00  0.00000000E+00
  0.00000000E+00  0.00000000E+00  0.00000000E+00
  0.00000000E+00  0.00000000E+00  0.00000000E+00
  0.00000000E+00  0.00000000E+00  0.00000000E+00
  0.00000000E+00  0.00000000E+00  0.00000000E+00
  0.00000000E+00  0.00000000E+00  0.00000000E+00
  0.00000000E+00  0.00000000E+00  0.00000000E+00
  0.00000000E+00  0.00000000E+00  0.00000000E+00
  0.00000000E+00  0.00000000E+00  0.00000000E+00
  0.00000000E+00  0.00000000E+00  0.00000000E+00
  0.00000000E+00  0.00000000E+00  0.00000000E+00
  0.00000000E+00  0.00000000E+00  0.00000000E+00
  0.00000000E+00  0.00000000E+00  0.00000000E+00
  0.00000000E+00  0.00000000E+00  0.00000000E+00
  0.00000000E+00  0.00000000E+00  0.00000000E+00
  0.00000000E+00  0.00000000E+00  0.00000000E+00
  0.00000000E+00  0.00000000E+00  0.00000000E+00
  0.00000000E+00  0.00000000E+00  0.00000000E+00
  0.00000000E+00  0.00000000E+00  0.00000000E+00
  0.00000000E+00  0.00000000E+00  0.00000000E+00
  0.00000000E+00  0.00000000E+00  0.00000000E+00
  0.00000000E+00  0.00000000E+00  0.00000000E+00
  0.00000000E+00  0.00000000E+00  0.00000000E+00
  0.00000000E+00  0.00000000E+00  0.00000000E+00
  0.00000000E+00  0.00000000E+00  0.00000000E+00
  0.00000000E+00  0.00000000E+00  0.00000000E+00
  0.00000000E+00  0.00000000E+00  0.00000000E+00
  0.00000000E+00  0.00000000E+00  0.00000000E+00
  0.00000000E+00  0.00000000E+00  0.00000000E+00
  0.00000000E+00  0.00000000E+00  0.00000000E+00
  0.00000000E+00  0.00000000E+00  0.00000000E+00
  0.00000000E+00  0.00000000E+00  0.00000000E+00
  0.00000000E+00  0.00000000E+00  0.00000000E+00
  0.00000000E+00  0.00000000E+00  0.00000000E+00
  0.00000000E+00  0.00000000E+00  0.00000000E+00
  0.00000000E+00  0.00000000E+00  0.00000000E+00
  0.00000000E+00  0.00000000E+00  0.00000000E+00
  0.00000000E+00  0.00000000E+00  0.00000000E+00
  0.00000000E+00  0.00000000E+00  0.00000000E+00
  0.00000000E+00  0.00000000E+00  0.00000000E+00
  0.00000000E+00  0.00000000E+00  0.00000000E+00
  0.00000000E+00  0.00000000E+00  0.00000000E+00
  0.00000000E+00  0.00000000E+00  0.00000000E+00
  0.00000000E+00  0.00000000E+00  0.00000000E+00
  0.00000000E+00  0.00000000E+00  0.00000000E+00
  0.00000000E+00  0.00000000E+00  0.00000000E+00
  0.00000000E+00  0.00000000E+00  0.00000000E+00
  0.00000000E+00  0.00000000E+00  0.00000000E+00
  0.00000000E+00  0.00000000E+00  0.00000000E+00
  0.00000000E+00  0.00000000E+00  0.00000000E+00
  0.00000000E+00  0.00000000E+00  0.00000000E+00
  0.00000000E+00  0.00000000E+00  0.00000000E+00
  0.00000000E+00  0.00000000E+00  0.00000000E+00
  0.00000000E+00  0.00000000E+00  0.00000000E+00
  0.00000000E+00  0.00000000E+00  0.00000000E+00
  0.00000000E+00  0.00000000E+00  0.00000000E+00
  0.00000000E+00  0.00000000E+00  0.00000000E+00
  0.00000000E+00  0.00000000E+00  0.00000000E+00
  0.00000000E+00  0.00000000E+00  0.00000000E+00
  0.00000000E+00  0.00000000E+00  0.00000000E+00
  0.00000000E+00  0.00000000E+00  0.00000000E+00
  0.00000000E+00  0.00000000E+00  0.00000000E+00
  0.00000000E+00  0.00000000E+00  0.00000000E+00
  0.00000000E+00  0.00000000E+00  0.00000000E+00
  0.00000000E+00  0.00000000E+00  0.00000000E+00
  0.00000000E+00  0.00000000E+00  0.00000000E+00
  0.00000000E+00  0.00000000E+00  0.00000000E+00
  0.00000000E+00  0.00000000E+00  0.00000000E+00
  0.00000000E+00  0.00000000E+00  0.00000000E+00
  0.00000000E+00  0.00000000E+00  0.00000000E+00
  0.00000000E+00  0.00000000E+00  0.00000000E+00
  0.00000000E+00  0.00000000E+00  0.00000000E+00
  0.00000000E+00  0.00000000E+00  0.00000000E+00
  0.00000000E+00  0.00000000E+00  0.00000000E+00
  0.00000000E+00  0.00000000E+00  0.00000000E+00
  0.00000000E+00  0.00000000E+00  0.00000000E+00
  0.00000000E+00  0.00000000E+00  0.00000000E+00
  0.00000000E+00  0.00000000E+00  0.00000000E+00
  0.00000000E+00  0.00000000E+00  0.00000000E+00
  0.00000000E+00  0.00000000E+00  0.00000000E+00
  0.00000000E+00  0.00000000E+00  0.00000000E+00
  0.00000000E+00  0.00000000E+00  0.00000000E+00
  0.00000000E+00  0.00000000E+00  0.00000000E+00
  0.00000000E+00  0.00000000E+00  0.00000000E+00
  0.00000000E+00  0.00000000E+00  0.00000000E+00
  0.00000000E+00  0.00000000E+00  0.00000000E+00
  0.00000000E+00  0.00000000E+00  0.00000000E+00
  0.00000000E+00  0.00000000E+00  0.00000000E+00
  0.00000000E+00  0.00000000E+00  0.00000000E+00
  0.00000000E+00  0.00000000E+00  0.00000000E+00
  0.00000000E+00  0.00000000E+00  0.00000000E+00
  0.00000000E+00  0.00000000E+00  0.00000000E+00
  0.00000000E+00  0.00000000E+00  0.00000000E+00
  0.00000000E+00  0.00000000E+00  0.00000000E+00
  0.00000000E+00  0.00000000E+00  0.00000000E+00
  0.00000000E+00  0.00000000E+00  0.00000000E+00
  0.00000000E+00  0.00000000E+00  0.00000000E+00
  0.00000000E+00  0.00000000E+00  0.00000000E+00
  0.00000000E+00  0.00000000E+00  0.00000000E+00
  0.00000000E+00  0.00000000E+00  0.00000000E+00
  0.00000000E+00  0.00000000E+00  0.00000000E+00
  0.00000000E+00  0.00000000E+00  0.00000000E+00
  0.00000000E+00  0.00000000E+00  0.00000000E+00
  0.00000000E+00  0.00000000E+00  0.00000000E+00
  0.00000000E+00  0.00000000E+00  0.00000000E+00
  0.00000000E+00  0.00000000E+00  0.00000000E+00
  0.00000000E+00  0.00000000E+00  0.00000000E+00
  0.00000000E+00  0.00000000E+00  0.00000000E+00
  0.00000000E+00  0.00000000E+00  0.00000000E+00
  0.00000000E+00  0.00000000E+00  0.00000000E+00
  0.00000000E+00  0.00000000E+00  0.00000000E+00
  0.00000000E+00  0.00000000E+00  0.00000000E+00
  0.00000000E+00  0.00000000E+00  0.00000000E+00
  0.00000000E+00  0.00000000E+00  0.00000000E+00
  0.00000000E+00  0.00000000E+00  0.00000000E+00
  0.00000000E+00  0.00000000E+00  0.00000000E+00
  0.00000000E+00  0.00000000E+00  0.00000000E+00
  0.00000000E+00  0.00000000E+00  0.00000000E+00
  0.00000000E+00  0.00000000E+00  0.00000000E+00
  0.00000000E+00  0.00000000E+00  0.00000000E+00
  0.00000000E+00  0.00000000E+00  0.00000000E+00
  0.00000000E+00  0.00000000E+00  0.00000000E+00
  0.00000000E+00  0.00000000E+00  0.00000000E+00
  0.00000000E+00  0.00000000E+00  0.00000000E+00
  0.00000000E+00  0.00000000E+00  0.00000000E+00
  0.00000000E+00  0.00000000E+00  0.00000000E+00
  0.00000000E+00  0.00000000E+00  0.00000000E+00
  0.00000000E+00  0.00000000E+00  0.00000000E+00
