Ca1 Fe4 S6 O24                          
   1.00000000000000     
     7.5596790000000000    0.2200500000000000    4.6003400000000001
     2.6966260000000002    7.0568249999999999    4.6042300000000003
     0.3247510000000000    0.2335260000000000    8.8478429999999992
   Ca   Fe   S    O 
     1     4     6    24
Direct
  0.3759163634169097  0.6229852236553471  0.5192156744043155
  0.6555734183895870  0.6304772235526050  0.6601512638390437
  0.1455380500306589  0.1515892246111901  0.1390466118729634
  0.8393910871507198  0.8535872666668658  0.8480792952311156
  0.3459825270324411  0.3507264725987932  0.3600646407157770
  0.9639032910995314  0.2442786911971128  0.5328828362762058
  0.4550614163392924  0.0527246693597884  0.7487122277420110
  0.5410504863990743  0.9534202858122646  0.2525373428071638
  0.7381171883188121  0.4679504542509815  0.0504147761503095
  0.2504409602061572  0.5294161094433586  0.9626211362283806
  0.0261087738031627  0.7575391235211096  0.4439906725799089
  0.3955167693747231  0.6069321204887334  0.7759913138283073
  0.9375056361715115  0.3361363940406763  0.0255158829056329
  0.7706145107944634  0.3747174682825219  0.6139806949229566
  0.0008422208783641  0.9617208458079991  0.3140518165617636
  0.5995936800047439  0.7610137580918545  0.4020272346778673
  0.3077573946902886  0.0246239560777696  0.9452355617319587
  0.6911791164294344  0.9594202868986180  0.0635501941177977
  0.2294829371506338  0.6321003175810831  0.3674418644699939
  0.0630532785495403  0.6690735217075492  0.9493788781596700
  0.3787217220837713  0.2510035899509895  0.6150863231279671
  0.9856813964903686  0.0404468044817470  0.6564971105517843
  0.6011058300120684  0.3964598116898226  0.2437056812225702
  0.9913141757840773  0.2776840473365590  0.3382694401448279
  0.5045608792409920  0.9055310967513480  0.6849682737326247
  0.3590805173595197  0.9615839916458343  0.2680039821626408
  0.6880211142385172  0.4898980148579091  0.9052479557020234
  0.2865720730052200  0.3433666879223541  0.9684353441080338
  0.8933586331737619  0.6972322616993732  0.4619647425255018
  0.1124648194462688  0.2821287753392019  0.5232574719031061
  0.6287847939213597  0.0431937057389802  0.7437942726657851
  0.5069526898479253  0.1076339672073409  0.2957209536688076
  0.7133930591246700  0.6578889056748497  0.0267605058567781
  0.2755439605173604  0.5109172786827040  0.1215835119560265
  0.0075466917990564  0.7281015465909916  0.6351439958532171
 
             NaN             NaN             NaN
             NaN             NaN             NaN
             NaN             NaN             NaN
             NaN             NaN             NaN
             NaN             NaN             NaN
             NaN             NaN             NaN
             NaN             NaN             NaN
             NaN             NaN             NaN
             NaN             NaN             NaN
             NaN             NaN             NaN
             NaN             NaN             NaN
             NaN             NaN             NaN
             NaN             NaN             NaN
             NaN             NaN             NaN
             NaN             NaN             NaN
             NaN             NaN             NaN
             NaN             NaN             NaN
             NaN             NaN             NaN
             NaN             NaN             NaN
             NaN             NaN             NaN
             NaN             NaN             NaN
             NaN             NaN             NaN
             NaN             NaN             NaN
             NaN             NaN             NaN
             NaN             NaN             NaN
             NaN             NaN             NaN
             NaN             NaN             NaN
             NaN             NaN             NaN
             NaN             NaN             NaN
             NaN             NaN             NaN
             NaN             NaN             NaN
             NaN             NaN             NaN
             NaN             NaN             NaN
             NaN             NaN             NaN
             NaN             NaN             NaN
