Ni2 S2                                  
   1.00000000000000     
     3.5098143389847114    0.0002417205942546   -0.0000000744570860
    -1.7546978338675523    3.0397092538754422   -0.0000001449706255
    -0.0000000833690438   -0.0000001680504119    5.6362162700949030
   Ni   S 
     2     2
Direct
  0.0000027338246227  0.9999971905897169  0.5001623253329868
  0.9999971875475708  0.0000027304809720  0.0001620542122254
  0.6666623646993344  0.3333377058988418  0.7518377852084512
  0.3333377139284721  0.6666623730304764  0.2518378352463415
 
  0.00000000E+00  0.00000000E+00  0.00000000E+00
  0.00000000E+00  0.00000000E+00  0.00000000E+00
  0.00000000E+00  0.00000000E+00  0.00000000E+00
  0.00000000E+00  0.00000000E+00  0.00000000E+00
