Ca2 V4 S6 O24                           
   1.00000000000000     
     7.6722530000000004    0.1729350000000000    4.5769289999999998
     2.6523340000000002    7.1638529999999996    4.5700839999999996
     0.1212040000000000    0.1667460000000000    8.9706589999999995
   Ca   V    S    O 
     2     4     6    24
Direct
  0.2527005414855734  0.8661610554398048  0.5845499818858760
  0.9552764469057797  0.0331254120738992  0.0071509948871194
  0.6534220333883192  0.6275659470581965  0.6599113395002395
  0.1477620834335759  0.1414351319153232  0.1407662746541675
  0.8387482866620874  0.8497752130690196  0.8425978057335635
  0.3676895777925413  0.3532334365186371  0.3433778925657550
  0.9708473094073773  0.2426167787509652  0.5378512793476563
  0.4307652101964055  0.0317666224621623  0.7551457385478010
  0.5612948356688788  0.9592297400669312  0.2385637630209769
  0.7520401281838546  0.4413061320407361  0.0376117037668151
  0.2441122054781929  0.5469573485599751  0.9577271241625323
  0.0453553570922130  0.7458054348722059  0.4487228947683960
  0.4075964141134014  0.5573041592771615  0.7812361451097668
  0.8830914577225503  0.2530450716351512  0.1207230321738773
  0.8236252109992012  0.4245960383257645  0.5289153988517901
  0.0864691869843400  0.8892575219133263  0.2577023335268467
  0.5673894256870402  0.8054986390997048  0.4199521778551663
  0.2380113364143265  0.0990054671322328  0.8873342659511675
  0.7325674767532198  0.8975347319193434  0.0909930147456777
  0.2008993513358881  0.5668143242026467  0.4582895595319362
  0.0922467155812713  0.7392280546117224  0.9072096084001957
  0.4618850693501448  0.1811761672766115  0.5747101874409920
  0.9207465691697881  0.0929186077165076  0.7272172641263431
  0.5708224266105432  0.4827460427291840  0.1811796773970485
  1.0068963195415082  0.1768164179581067  0.4008785354340884
  0.4370239148074079  0.8697524546989598  0.7393270589098669
  0.3888730918166869 -0.0081208022226777  0.2253006902473683
  0.7433985986352301  0.4156960224031135  0.8913098473507957
  0.1876140625695635  0.3990645179475456  1.0043727044707307
  0.8690804363866523  0.7351740177432007  0.4944677457872851
  0.1513247510234776  0.2306313676232178  0.5195776249663382
  0.5675980583682168  0.9696686350125414  0.8363218412383958
  0.5606831425084244  0.1289278247438358  0.2288921795477316
  0.8310508507643045  0.5849283282433769  0.9541929370049379
  0.2759644401494400  0.5324867901642535  0.1076606271021675
  0.0257838408393539  0.8118060492999556  0.5819747563674099
 
             NaN             NaN             NaN
             NaN             NaN             NaN
             NaN             NaN             NaN
             NaN             NaN             NaN
             NaN             NaN             NaN
             NaN             NaN             NaN
             NaN             NaN             NaN
             NaN             NaN             NaN
             NaN             NaN             NaN
             NaN             NaN             NaN
             NaN             NaN             NaN
             NaN             NaN             NaN
             NaN             NaN             NaN
             NaN             NaN             NaN
             NaN             NaN             NaN
             NaN             NaN             NaN
             NaN             NaN             NaN
             NaN             NaN             NaN
             NaN             NaN             NaN
             NaN             NaN             NaN
             NaN             NaN             NaN
             NaN             NaN             NaN
             NaN             NaN             NaN
             NaN             NaN             NaN
             NaN             NaN             NaN
             NaN             NaN             NaN
             NaN             NaN             NaN
             NaN             NaN             NaN
             NaN             NaN             NaN
             NaN             NaN             NaN
             NaN             NaN             NaN
             NaN             NaN             NaN
             NaN             NaN             NaN
             NaN             NaN             NaN
             NaN             NaN             NaN
             NaN             NaN             NaN
