Ca2 V4 S6 O24
1.0
7.672253 0.172935 4.576929
2.652334 7.163853 4.570084
0.121204 0.166746 8.970659
Ca V S O
2 4 6 24
direct
0.288858 0.822971 0.576400 Ca
0.957403 1.027072 1.011549 Ca
0.650244 0.639358 0.657489 V
0.141781 0.146668 0.144335 V
0.842813 0.852174 0.839348 V
0.365059 0.350975 0.345162 V
0.969623 0.246976 0.535672 S
0.428953 0.037612 0.754763 S
0.560411 0.960161 0.238283 S
0.745988 0.447945 0.044160 S
0.245525 0.547416 0.954975 S
0.036555 0.751228 0.453401 S
0.408475 0.560340 0.778101 O
0.882562 0.256986 0.112697 O
0.837390 0.432681 0.533332 O
0.087261 0.889597 0.261746 O
0.572035 0.795345 0.412178 O
0.239321 0.093840 0.894506 O
0.727703 0.908396 0.084271 O
0.170033 0.563234 0.461685 O
0.092631 0.740396 0.911360 O
0.449984 0.197011 0.581498 O
0.918367 0.100184 0.725497 O
0.569625 0.477757 0.196377 O
0.980265 0.197391 0.399588 O
0.435715 0.883690 0.726304 O
0.385820 1.004273 0.222545 O
0.726055 0.439696 0.895866 O
0.188267 0.402355 0.995657 O
0.847889 0.768243 0.503917 O
0.158625 0.221385 0.506078 O
0.571308 -0.029977 0.830791 O
0.564708 0.119163 0.242648 O
0.823434 0.589105 -0.027274 O
0.281829 0.524644 0.106013 O
0.041115 0.801206 0.584417 O
