Fe4 P4                                  
   1.00000000000000     
     5.2495373810372321    0.0001187551302659    0.0002210409675702
     0.0000123127733758    3.4053694154943503    0.0000207341845717
     0.0003569014382682   -0.0000123236657281    6.1533853323140164
   Fe   P 
     4     4
Direct
  0.5076023036271969  0.2499760058203041  0.3027902176871555
  0.0077592541773176  0.2499695492906737  0.1972873929581084
  0.4923943032752856  0.7500250050117508  0.6971970337036466
  0.9922415463667125  0.7500293575401920  0.8027284823672184
  0.6776558802633909  0.2500193531636115  0.9310147645543593
  0.1776778692908480  0.2500107391481732  0.5689951639125500
  0.3223513316565346  0.7499949949839250  0.0689130361334285
  0.8223175113427215  0.7499749950413561  0.4310739086835264
 
  0.00000000E+00  0.00000000E+00  0.00000000E+00
  0.00000000E+00  0.00000000E+00  0.00000000E+00
  0.00000000E+00  0.00000000E+00  0.00000000E+00
  0.00000000E+00  0.00000000E+00  0.00000000E+00
  0.00000000E+00  0.00000000E+00  0.00000000E+00
  0.00000000E+00  0.00000000E+00  0.00000000E+00
  0.00000000E+00  0.00000000E+00  0.00000000E+00
  0.00000000E+00  0.00000000E+00  0.00000000E+00
