Ca2 V4 S6 O24                           
   1.00000000000000     
     7.6665310000000000    0.1267510000000000    4.5278669999999996
     2.6356519999999999    7.1832940000000001    4.5261709999999997
     0.1307910000000000    0.1252830000000000    8.9194849999999999
   Ca   V    S    O 
     2     4     6    24
Direct
  0.3833270643082333  0.6434434185590119  0.5123838990507315
  0.9775715624554533  0.0458051828205617 -0.0251391705142290
  0.6516485143182045  0.6285327668195534  0.6662583420187415
  0.1525537799827487  0.1417545554408732  0.1459698032156510
  0.8450664030440215  0.8593328149487858  0.8421058198658301
  0.3480509784702904  0.3565450970534804  0.3498442283237331
  0.9532240656719709  0.2550462781275493  0.5447142674018636
  0.4456687180306644  0.0386275265527426  0.7564492641805478
  0.5482027300097162  0.9570764845660091  0.2456794317145333
  0.7489077560719338  0.4444344371699805  0.0446433475780716
  0.2383826708661603  0.5557645707814056  0.9595444757356471
  0.0390542635446627  0.7569456495306037  0.4428864644007315
  0.4175493576764217  0.5408740097569800  0.7951001108180720
  0.8886171317589158  0.2615056791334547  0.1160359748182880
  0.7880308360861494  0.4289008172145979  0.5302771557374867
  0.0732172809296096  0.9005901754704001  0.2540615205478275
  0.5529984337009850  0.8153558455938535  0.4332623451137910
  0.2509689298289023  0.1017248121149344  0.8893506323063961
  0.7338216678612048  0.9041579002250818  0.1039407393577135
  0.2107693902438968  0.5849641552004502  0.4427659150378890
  0.1029895987296634  0.7456460159563988  0.8911765230259766
  0.4586267556484165  0.1839898285177081  0.5706969935971437
  0.8976152181243492  0.1105896831577440  0.7320702957101671
  0.5696309127579485  0.4716167779072358  0.1987547623499070
  1.0178433360981287  0.1857204394020912  0.3994075459557219
  0.4737596018754077  0.8587093764458726  0.7613787315768195
  0.4025378779143573  0.9434292058244934  0.2229189870944044
  0.7367486698438088  0.4200980194697623  0.8990888450285642
  0.1782523555851195  0.4088362600917442  1.0064882762877405
  0.8780678987364863  0.7197415997431886  0.4915900303651829
  0.1031667847002686  0.2826293605990284  0.5429601864613293
  0.5786074719661065  1.0186169792760240  0.8198663029717609
  0.5047009301536353  0.1438710255750155  0.2325894239654701
  0.8124859097259368  0.5990213054319142  0.9648810577837362
  0.2608944563481306  0.5475246177939536  0.1134219485158927
  0.0248528011409581  0.8171544292647774  0.5771422326932188
 
             NaN             NaN             NaN
             NaN             NaN             NaN
             NaN             NaN             NaN
             NaN             NaN             NaN
             NaN             NaN             NaN
             NaN             NaN             NaN
             NaN             NaN             NaN
             NaN             NaN             NaN
             NaN             NaN             NaN
             NaN             NaN             NaN
             NaN             NaN             NaN
             NaN             NaN             NaN
             NaN             NaN             NaN
             NaN             NaN             NaN
             NaN             NaN             NaN
             NaN             NaN             NaN
             NaN             NaN             NaN
             NaN             NaN             NaN
             NaN             NaN             NaN
             NaN             NaN             NaN
             NaN             NaN             NaN
             NaN             NaN             NaN
             NaN             NaN             NaN
             NaN             NaN             NaN
             NaN             NaN             NaN
             NaN             NaN             NaN
             NaN             NaN             NaN
             NaN             NaN             NaN
             NaN             NaN             NaN
             NaN             NaN             NaN
             NaN             NaN             NaN
             NaN             NaN             NaN
             NaN             NaN             NaN
             NaN             NaN             NaN
             NaN             NaN             NaN
             NaN             NaN             NaN
