Ca2 V4 S6 O24
1.0
7.666531 0.126751 4.527867
2.635652 7.183294 4.526171
0.130791 0.125283 8.919485
Ca V S O
2 4 6 24
direct
0.408190 0.637092 0.531455 Ca
0.980416 1.010294 1.003657 Ca
0.646955 0.642310 0.650115 V
0.143391 0.145379 0.144476 V
0.847419 0.851427 0.845862 V
0.356916 0.350956 0.348351 V
0.958093 0.247325 0.541356 S
0.440631 0.042225 0.750634 S
0.551969 0.953966 0.243605 S
0.746899 0.448794 0.044968 S
0.246697 0.546408 0.951839 S
0.041736 0.749153 0.451134 S
0.405856 0.563296 0.771576 O
0.894819 0.262547 0.085640 O
0.796953 0.416222 0.551701 O
0.074757 0.897823 0.264565 O
0.568309 0.778921 0.407518 O
0.254970 0.077568 0.899951 O
0.728051 0.920769 0.088156 O
0.203347 0.579154 0.443633 O
0.091668 0.733465 0.922160 O
0.438523 0.214947 0.586978 O
0.925195 0.094968 0.727103 O
0.581916 0.450551 0.214631 O
0.982354 0.194600 0.399734 O
0.463236 0.892882 0.707061 O
0.393809 0.992395 0.205526 O
0.706906 0.464877 0.898140 O
0.190831 0.400801 0.989041 O
0.877508 0.725050 0.492530 O
0.122469 0.267953 0.508550 O
0.585100 -0.006688 0.814596 O
0.533701 0.105608 0.276884 O
0.811574 0.592762 -0.005779 O
0.293756 0.516726 0.099925 O
0.023722 0.802059 0.590675 O
