Ca4 Si8 O20                             
   1.00000000000000     
     7.2122241188779581    0.0014382756674057    0.6543294494276649
     2.5405002247707205    7.0198648329008329    1.1200925584448300
    -0.0005343278943923   -0.0054951090040369    6.5105854472439493
   Ca   Si   O 
     4     8    20
Direct
  0.4583029996328349  0.3196164710253768  0.8183329154282788
  0.5416965384978099  0.6803832389952760  0.1816673279720007
  0.0285469033246244  0.2144945887467955  0.6116412272572376
  0.9714503238194254  0.7855060286935469  0.3883605840606918
  0.4999994248520636  0.0000004103662476  0.4999997954637152
  0.9999999637454593  0.4999999106588007  0.0000002440691631
  0.2466175615956843  0.7783212148941843  0.8001553821423641
  0.7533827787230152  0.2216787337595818  0.1998445425187398
  0.1984295782503267  0.0701609341902625  0.1256844000529114
  0.8015704148238996  0.9298391432512219  0.8743156061195094
  0.6834033095772369  0.5792468532443422  0.6584724053720805
  0.3165968332419666  0.4207530364385192  0.3415274453960180
  0.9960822848112230  0.9005803446102618  0.7175686923390145
  0.0039178101552508  0.0994201962238108  0.2824312587141478
  0.4979888642975965  0.6342540344721002  0.8265143399862254
  0.5020116456794668  0.3657459657156963  0.1734856546494044
  0.1563513216233545  0.2557932258725941  0.9491997740530280
  0.8436493716576763  0.7442068203364656  0.0508001035975028
  0.6983706103500964  0.3879834235969213  0.5696389186517123
  0.3016304606480134  0.6120164691824783  0.4303604093580518
  0.1891279164245461  0.5811396658784602  0.8851106323295070
  0.8108724605571282  0.4188600773622539  0.1148894509895868
  0.2243386663378217  0.8774470468781459  0.0217962612796683
  0.7756612186443093  0.1225531144425887  0.9782035923713011
  0.1007408491230564  0.4597671739900093  0.2505502872526506
  0.8992598302884929  0.5402314822429091  0.7494493442118397
  0.3051664290994367  0.9337542889219606  0.6196135467463790
  0.6948334143146084  0.0662458785106210  0.3803862710283994
  0.6515135140534980  0.7589714384500326  0.4751511320008319
  0.3484864531912137  0.2410287835066214  0.5248489337535247
  0.6004197066796593  0.9841629139100831  0.7541133744882274
  0.3995805419791836  0.0158370916318162  0.2458861463462725
 
  0.00000000E+00  0.00000000E+00  0.00000000E+00
  0.00000000E+00  0.00000000E+00  0.00000000E+00
  0.00000000E+00  0.00000000E+00  0.00000000E+00
  0.00000000E+00  0.00000000E+00  0.00000000E+00
  0.00000000E+00  0.00000000E+00  0.00000000E+00
  0.00000000E+00  0.00000000E+00  0.00000000E+00
  0.00000000E+00  0.00000000E+00  0.00000000E+00
  0.00000000E+00  0.00000000E+00  0.00000000E+00
  0.00000000E+00  0.00000000E+00  0.00000000E+00
  0.00000000E+00  0.00000000E+00  0.00000000E+00
  0.00000000E+00  0.00000000E+00  0.00000000E+00
  0.00000000E+00  0.00000000E+00  0.00000000E+00
  0.00000000E+00  0.00000000E+00  0.00000000E+00
  0.00000000E+00  0.00000000E+00  0.00000000E+00
  0.00000000E+00  0.00000000E+00  0.00000000E+00
  0.00000000E+00  0.00000000E+00  0.00000000E+00
  0.00000000E+00  0.00000000E+00  0.00000000E+00
  0.00000000E+00  0.00000000E+00  0.00000000E+00
  0.00000000E+00  0.00000000E+00  0.00000000E+00
  0.00000000E+00  0.00000000E+00  0.00000000E+00
  0.00000000E+00  0.00000000E+00  0.00000000E+00
  0.00000000E+00  0.00000000E+00  0.00000000E+00
  0.00000000E+00  0.00000000E+00  0.00000000E+00
  0.00000000E+00  0.00000000E+00  0.00000000E+00
  0.00000000E+00  0.00000000E+00  0.00000000E+00
  0.00000000E+00  0.00000000E+00  0.00000000E+00
  0.00000000E+00  0.00000000E+00  0.00000000E+00
  0.00000000E+00  0.00000000E+00  0.00000000E+00
  0.00000000E+00  0.00000000E+00  0.00000000E+00
  0.00000000E+00  0.00000000E+00  0.00000000E+00
  0.00000000E+00  0.00000000E+00  0.00000000E+00
  0.00000000E+00  0.00000000E+00  0.00000000E+00
