Co8 P8 O28                              
   1.00000000000000     
     6.4102132216102978    0.0000096206418111   -2.7803776153757847
    -0.0000056725229235    8.3319664698102684    0.0000096865248236
     0.0086431075534248    0.0000063880271982    8.9726114079442763
   Co   P    O 
     8     8    28
Direct
  0.2326605533873618  0.5722712782963839  0.6083152188545142
  0.7674123183589927  0.0723326400032320  0.8916218421033548
  0.7674130472910718  0.4276667568811874  0.3916204219215587
  0.2326620580261718  0.9277291280305278  0.1083151300418521
  0.6998731233422291  0.0612682416803949  0.3220721087353553
  0.3000219662524586  0.5612470248473045  0.1779973473498515
  0.3000202589662848  0.9387535793124258  0.6779966689790697
  0.6998727875478039  0.4387316228648572  0.8220718161407987
  0.9394316042916415  0.7316157306038065  0.2586299902152334
  0.0606051400170671  0.2316002079468191  0.2413893722149680
  0.0606054775766012  0.2683979406817230  0.7413894068844300
  0.9394303945932450  0.7683850112393031  0.7586290693432787
  0.5337374152882148  0.7252143539587976  0.9671525018114977
  0.4662381682157246  0.2252307267442362  0.5328433691686172
  0.4662401838484769  0.2747688179324044  0.0328438385964347
  0.5337378161954334  0.7747859173614486  0.4671524184831526
  0.7497958896433303  0.6703418386743749  0.1002769238783756
  0.2501801704210393  0.1703117388718738  0.3997268018304041
  0.2501807651064567  0.3296886337274074  0.8997266656714018
  0.7497970698767205  0.8296583311610206  0.6002760902798485
  0.3788337316481432  0.7348744332203978  0.0477072947179309
  0.6210737878810733  0.2349251272244999  0.4522101988876628
  0.6210751106512831  0.2650757722433426  0.9522100809570802
  0.3788339333422428  0.7651267459248601  0.5477073914227901
  0.1187117318046518  0.7411423324146611  0.2027824879394871
  0.8813233949313855  0.2411238349964648  0.2972277078610972
  0.8813232645357587  0.2588752055342027  0.7972287071545878
  0.1187118539963379  0.7588564934323969  0.7027832079215557
  0.9762181510915013  0.5972356550643951  0.3815947460990188
  0.0238237290159304  0.0972780651134926  0.1183987178213570
  0.0238233052532237  0.4027209729686305  0.6183970218240020
  0.9762171547956981  0.9027647465764588  0.8815936018896338
  0.8857551187482926  0.8890557901938010  0.3116842779570135
  0.1143055257353041  0.3890722875264601  0.1883913990542254
  0.1143062226824796  0.1109271947223363  0.6883921676354063
  0.8857521081382558  0.6109439156373639  0.8116831075389683
  0.4832974218507502  0.5901557715667423  0.8436994808114449
  0.5167490175708522  0.0901959004761963  0.6563004501506882
  0.5167497417008988  0.4098057020669330  0.1563008642048445
  0.4832968449455279  0.9098443071945042  0.3436985610326246
  0.5566648093679021  0.8872755555224927  0.8975773478827094
  0.4432868709627726  0.3873054353414744  0.6024030504309721
  0.4432856389669624  0.1126939334924160  0.1024031729283337
  0.5566653221364319  0.6127253007259412  0.3975779533725614
 
  0.00000000E+00  0.00000000E+00  0.00000000E+00
  0.00000000E+00  0.00000000E+00  0.00000000E+00
  0.00000000E+00  0.00000000E+00  0.00000000E+00
  0.00000000E+00  0.00000000E+00  0.00000000E+00
  0.00000000E+00  0.00000000E+00  0.00000000E+00
  0.00000000E+00  0.00000000E+00  0.00000000E+00
  0.00000000E+00  0.00000000E+00  0.00000000E+00
  0.00000000E+00  0.00000000E+00  0.00000000E+00
  0.00000000E+00  0.00000000E+00  0.00000000E+00
  0.00000000E+00  0.00000000E+00  0.00000000E+00
  0.00000000E+00  0.00000000E+00  0.00000000E+00
  0.00000000E+00  0.00000000E+00  0.00000000E+00
  0.00000000E+00  0.00000000E+00  0.00000000E+00
  0.00000000E+00  0.00000000E+00  0.00000000E+00
  0.00000000E+00  0.00000000E+00  0.00000000E+00
  0.00000000E+00  0.00000000E+00  0.00000000E+00
  0.00000000E+00  0.00000000E+00  0.00000000E+00
  0.00000000E+00  0.00000000E+00  0.00000000E+00
  0.00000000E+00  0.00000000E+00  0.00000000E+00
  0.00000000E+00  0.00000000E+00  0.00000000E+00
  0.00000000E+00  0.00000000E+00  0.00000000E+00
  0.00000000E+00  0.00000000E+00  0.00000000E+00
  0.00000000E+00  0.00000000E+00  0.00000000E+00
  0.00000000E+00  0.00000000E+00  0.00000000E+00
  0.00000000E+00  0.00000000E+00  0.00000000E+00
  0.00000000E+00  0.00000000E+00  0.00000000E+00
  0.00000000E+00  0.00000000E+00  0.00000000E+00
  0.00000000E+00  0.00000000E+00  0.00000000E+00
  0.00000000E+00  0.00000000E+00  0.00000000E+00
  0.00000000E+00  0.00000000E+00  0.00000000E+00
  0.00000000E+00  0.00000000E+00  0.00000000E+00
  0.00000000E+00  0.00000000E+00  0.00000000E+00
  0.00000000E+00  0.00000000E+00  0.00000000E+00
  0.00000000E+00  0.00000000E+00  0.00000000E+00
  0.00000000E+00  0.00000000E+00  0.00000000E+00
  0.00000000E+00  0.00000000E+00  0.00000000E+00
  0.00000000E+00  0.00000000E+00  0.00000000E+00
  0.00000000E+00  0.00000000E+00  0.00000000E+00
  0.00000000E+00  0.00000000E+00  0.00000000E+00
  0.00000000E+00  0.00000000E+00  0.00000000E+00
  0.00000000E+00  0.00000000E+00  0.00000000E+00
  0.00000000E+00  0.00000000E+00  0.00000000E+00
  0.00000000E+00  0.00000000E+00  0.00000000E+00
  0.00000000E+00  0.00000000E+00  0.00000000E+00
