Co8 P8 O28
1.0
6.416555 0.000000 -2.803324
0.000000 8.363400 0.000000
0.000000 0.000000 9.011400
Co P O
8 8 28
direct
0.232470 0.571180 0.608840 Co2+
0.767530 0.071180 0.891160 Co2+
0.767530 0.428820 0.391160 Co2+
0.232470 0.928820 0.108840 Co2+
0.699330 0.058430 0.324750 Co2+
0.300670 0.558430 0.175250 Co2+
0.300670 0.941570 0.675250 Co2+
0.699330 0.441570 0.824750 Co2+
0.940420 0.732030 0.258240 P5+
0.059580 0.232030 0.241760 P5+
0.059580 0.267970 0.741760 P5+
0.940420 0.767970 0.758240 P5+
0.531700 0.725710 0.967710 P5+
0.468300 0.225710 0.532290 P5+
0.468300 0.274290 0.032290 P5+
0.531700 0.774290 0.467710 P5+
0.749080 0.670110 0.100050 O2-
0.250920 0.170110 0.399950 O2-
0.250920 0.329890 0.899950 O2-
0.749080 0.829890 0.600050 O2-
0.378480 0.735120 0.049380 O2-
0.621520 0.235120 0.450620 O2-
0.621520 0.264880 0.950620 O2-
0.378480 0.764880 0.549380 O2-
0.119020 0.740850 0.202670 O2-
0.880980 0.240850 0.297330 O2-
0.880980 0.259150 0.797330 O2-
0.119020 0.759150 0.702670 O2-
0.976620 0.598550 0.381650 O2-
0.023380 0.098550 0.118350 O2-
0.023380 0.401450 0.618350 O2-
0.976620 0.901450 0.881650 O2-
0.887060 0.889360 0.311120 O2-
0.112940 0.389360 0.188880 O2-
0.112940 0.110640 0.688880 O2-
0.887060 0.610640 0.811120 O2-
0.480860 0.590660 0.844310 O2-
0.519140 0.090660 0.655690 O2-
0.519140 0.409340 0.155690 O2-
0.480860 0.909340 0.344310 O2-
0.553440 0.887200 0.897490 O2-
0.446560 0.387200 0.602510 O2-
0.446560 0.112800 0.102510 O2-
0.553440 0.612800 0.397490 O2-
