Ca1 V4 S6 O24
1.0
7.515387 -0.086928 4.806919
2.347947 6.770801 5.217247
-0.021591 -0.585710 8.922355
Ca V S O
1 4 6 24
direct
0.250360 0.880196 0.612170 Ca
0.654711 0.644737 0.652767 V
0.135979 0.141989 0.141793 V
0.845566 0.842979 0.850253 V
0.359083 0.353565 0.343025 V
0.960574 0.251309 0.524628 S
0.444188 0.036238 0.747189 S
0.544721 0.970983 0.235785 S
0.747432 0.444968 0.044701 S
0.244026 0.536847 0.961543 S
0.044769 0.745712 0.462535 S
0.412767 0.561150 0.787238 O
0.884113 0.257122 0.101584 O
0.827874 0.435067 0.536557 O
0.107879 0.882319 0.276271 O
0.566998 0.816121 0.416766 O
0.267681 0.099482 0.891737 O
0.701814 0.915183 0.079550 O
0.171883 0.552142 0.472791 O
0.087472 0.719462 0.919385 O
0.454989 0.184977 0.561121 O
0.916010 0.092886 0.703233 O
0.561623 0.467626 0.197998 O
0.967991 0.225796 0.372303 O
0.442869 0.868955 0.744744 O
0.361488 0.992126 0.249788 O
0.725885 0.469606 0.880298 O
0.208234 0.379611 0.992667 O
0.850914 0.770276 0.511466 O
0.155502 0.224268 0.491412 O
0.606674 -0.018794 0.787854 O
0.536151 0.146527 0.221819 O
0.813310 0.590549 -0.002592 O
0.262952 0.514801 0.124135 O
0.046944 0.785061 0.605520 O
