Fe4 S6 O24                              
   1.00000000000000     
     7.4649584862323239    0.0763381314787216    4.3296810964571977
     2.5300480276839847    7.0235416663158663    4.3296824163843617
     0.1074742363274302    0.0763476574096744    8.6290473663196110
   Fe   S    O 
     4     6    24
Direct
  0.6390449338848683  0.6390460668668609  0.6390458960561247
  0.1390459908139476  0.1390447591509059  0.1390458254942857
  0.8555539854904737  0.8555534892318946  0.8555546728246810
  0.3555538288598399  0.3555539556144609  0.3555545195266632
  0.9572185576206991  0.2472891327969577  0.5377621552359528
  0.4572202002495658  0.0377626985147259  0.7472882978341957
  0.5377621327004078  0.9572196866838496  0.2472889944135375
  0.7472889549308306  0.4572188489964901  0.0377621273478539
  0.2472884846231409  0.5377625144008178  0.9572206270955519
  0.0377624174205877  0.7472879069514988  0.4572211404997333
  0.4119380839207452  0.5578394521934840  0.7807582099218493
  0.9119399055852639  0.2807585385897440  0.0578368549154149
  0.7807598945761356  0.4119432019803639  0.5578322510089180
  0.0578394216791125  0.9119372099877765  0.2807588796604890
  0.5578440129822511  0.7807539759814759  0.4119356667690042
  0.2807548860516462  0.0578429407495946  0.9119355863452512
  0.7145770991440656  0.9361097863063179  0.0832371561880194
  0.2145832387287285  0.5832420174678816  0.4361033426404504
  0.0832419390526411  0.7145822857548652  0.9361032204703079
  0.4361106271243003  0.2145782724317939  0.5832374556643032
  0.9361015401834862  0.0832419833039637  0.7145810885563861
  0.5832396451449284  0.4361050781582350  0.2145803018913739
  0.9906341213631222  0.2057685356133305  0.3767093154725814
  0.4906313756806142  0.8767080118417425  0.7057724166918078
  0.3767045495902295  0.9906305765128920  0.2057773564174781
  0.7057703064019876  0.4906326487166979  0.8767084944451966
  0.2057717037504219  0.3767082786042977  0.9906331463480527
  0.8767083414911170  0.7057699377230335  0.4906349461538113
  0.1182666757920430  0.2884375697258434  0.5050533766302934
  0.6182669959749205  0.0050508612066054  0.7884386975400801
  0.5050506200285980  0.1182673094572806  0.2884375836362807
  0.7884387743233958  0.6182668073633977  0.0050515109116276
  0.2884367288052516  0.5050503468228413  0.1182688680404098
  0.0050500260306592  0.7884353142981197  0.6182700173520601
 
  0.00000000E+00  0.00000000E+00  0.00000000E+00
  0.00000000E+00  0.00000000E+00  0.00000000E+00
  0.00000000E+00  0.00000000E+00  0.00000000E+00
  0.00000000E+00  0.00000000E+00  0.00000000E+00
  0.00000000E+00  0.00000000E+00  0.00000000E+00
  0.00000000E+00  0.00000000E+00  0.00000000E+00
  0.00000000E+00  0.00000000E+00  0.00000000E+00
  0.00000000E+00  0.00000000E+00  0.00000000E+00
  0.00000000E+00  0.00000000E+00  0.00000000E+00
  0.00000000E+00  0.00000000E+00  0.00000000E+00
  0.00000000E+00  0.00000000E+00  0.00000000E+00
  0.00000000E+00  0.00000000E+00  0.00000000E+00
  0.00000000E+00  0.00000000E+00  0.00000000E+00
  0.00000000E+00  0.00000000E+00  0.00000000E+00
  0.00000000E+00  0.00000000E+00  0.00000000E+00
  0.00000000E+00  0.00000000E+00  0.00000000E+00
  0.00000000E+00  0.00000000E+00  0.00000000E+00
  0.00000000E+00  0.00000000E+00  0.00000000E+00
  0.00000000E+00  0.00000000E+00  0.00000000E+00
  0.00000000E+00  0.00000000E+00  0.00000000E+00
  0.00000000E+00  0.00000000E+00  0.00000000E+00
  0.00000000E+00  0.00000000E+00  0.00000000E+00
  0.00000000E+00  0.00000000E+00  0.00000000E+00
  0.00000000E+00  0.00000000E+00  0.00000000E+00
  0.00000000E+00  0.00000000E+00  0.00000000E+00
  0.00000000E+00  0.00000000E+00  0.00000000E+00
  0.00000000E+00  0.00000000E+00  0.00000000E+00
  0.00000000E+00  0.00000000E+00  0.00000000E+00
  0.00000000E+00  0.00000000E+00  0.00000000E+00
  0.00000000E+00  0.00000000E+00  0.00000000E+00
  0.00000000E+00  0.00000000E+00  0.00000000E+00
  0.00000000E+00  0.00000000E+00  0.00000000E+00
  0.00000000E+00  0.00000000E+00  0.00000000E+00
  0.00000000E+00  0.00000000E+00  0.00000000E+00
