Cr12 P4                                 
   1.00000000000000     
     0.0018942767146789   -0.0006652744032074   -4.4399550357246680
    -4.5120382678780633   -4.5152529333772904   -2.2188819230979924
    -4.5129231234109239    4.5133277832630023   -2.2172169642162434
   Cr   P 
    12     4
Direct
  0.1349349829590147  0.0258159292190566  0.1771730618433988
  0.3368662416982499  0.9735727862755849  0.8239046100078977
  0.6902082539531205  0.1768296304193013  0.9737766429312067
  0.8375843367045671  0.8234654824132842  0.0264853710720213
  0.9714252275050249  0.6688869759613668  0.3890079447117413
  0.0300665625604347  0.3303286993801057  0.6106801027795323
  0.6398432117109144  0.3887368579024424  0.3303568929119663
  0.3589779910514340  0.6116308859093851  0.6693188840800345
  0.5498193696405443  0.0585224197817256  0.3880580310096515
  0.9969669245440260  0.9418305364732213  0.6116386563127479
  0.0614475714943136  0.3884683594937424  0.9414226904386881
  0.3912776178968684  0.6118539762805838  0.0583403046111818
  0.4603124048304190  0.7559030450614224  0.3348495528660729
  0.5509895059302751  0.2439729643039632  0.6656872517184230
  0.2054703692890383  0.3347222348780799  0.2434273729927660
  0.7838094282317621  0.6654592162467272  0.7558726297126699
 
  0.00000000E+00  0.00000000E+00  0.00000000E+00
  0.00000000E+00  0.00000000E+00  0.00000000E+00
  0.00000000E+00  0.00000000E+00  0.00000000E+00
  0.00000000E+00  0.00000000E+00  0.00000000E+00
  0.00000000E+00  0.00000000E+00  0.00000000E+00
  0.00000000E+00  0.00000000E+00  0.00000000E+00
  0.00000000E+00  0.00000000E+00  0.00000000E+00
  0.00000000E+00  0.00000000E+00  0.00000000E+00
  0.00000000E+00  0.00000000E+00  0.00000000E+00
  0.00000000E+00  0.00000000E+00  0.00000000E+00
  0.00000000E+00  0.00000000E+00  0.00000000E+00
  0.00000000E+00  0.00000000E+00  0.00000000E+00
  0.00000000E+00  0.00000000E+00  0.00000000E+00
  0.00000000E+00  0.00000000E+00  0.00000000E+00
  0.00000000E+00  0.00000000E+00  0.00000000E+00
  0.00000000E+00  0.00000000E+00  0.00000000E+00
