Fe2 P4                                  
   1.00000000000000     
     4.9559288818066038    0.0000131760905123   -0.0000189774255148
     0.0000222364105860    5.6964574163712705   -0.0017862795888508
    -0.0000075713782049   -0.0009357213159463    2.7741142646156596
   Fe   P 
     2     4
Direct
  0.5000164235711320  0.4999878802506636  0.4999963085082793
  0.0000142593436225  0.0000147715668123  0.0000049009837857
  0.6696101868815942  0.1253040859071125  0.5001283990027048
  0.3303720390508401  0.8747482939093415  0.4998668824429172
  0.1696276703505391  0.3747126346690355  0.9998259662488491
  0.8303594208022722  0.6252323336970346  0.0001775428134568
 
  0.00000000E+00  0.00000000E+00  0.00000000E+00
  0.00000000E+00  0.00000000E+00  0.00000000E+00
  0.00000000E+00  0.00000000E+00  0.00000000E+00
  0.00000000E+00  0.00000000E+00  0.00000000E+00
  0.00000000E+00  0.00000000E+00  0.00000000E+00
  0.00000000E+00  0.00000000E+00  0.00000000E+00
