Ca2 Co4 S6 O24                          
   1.00000000000000     
     7.6199079999999997    0.0516160000000000    4.4736599999999997
     2.6350140000000000    7.0366470000000003    4.5105750000000002
     0.1845080000000000    0.0062080000000000    8.8160570000000007
   Ca   Co   S    O 
     2     4     6    24
Direct
  0.4820118968730655  0.5164532036728902  0.4984005094058867
  0.9899031363256123  0.0092993667009407 -0.0050544677518765
  0.6355580821640160  0.6527793523021336  0.6553144910251423
  0.1391643541514354  0.1487571280613044  0.1524146590263480
  0.8539795419380001  0.8538176683272384  0.8408081024585763
  0.3503483582414982  0.3514974184687141  0.3494451760400969
  0.9449991713417800  0.2533341311182516  0.5425107310928200
  0.4424652560993284  0.0505921909959462  0.7490623736291900
  0.5455497920727278  0.9554791550881504  0.2467633934847102
  0.7444722195967940  0.4573818021126906  0.0430399948206679
  0.2460955723951838  0.5476851778900423  0.9574564727427577
  0.0414621962145017  0.7557067916571022  0.4552712151937493
  0.4120056945877206  0.5497055665696812  0.7783606900047920
  0.8884357917374117  0.2649692596515149  0.0881800957625871
  0.7733005415442532  0.4268943494246495  0.5488363872854297
  0.0759282495949091  0.9017305154450703  0.2628942752653577
  0.5522935141962027  0.7817917466409315  0.4185047453617759
  0.2549448352319353  0.0941249043751145  0.8997554299944712
  0.7309660265678546  0.9139814916995682  0.0937233994243637
  0.2089289326713753  0.5786432620620076  0.4486030464515608
  0.0952812057388408  0.7369501609993070  0.9223607247172079
  0.4428441407178177  0.2277041346320138  0.5795641297019546
  0.9082684932352829  0.1030671330601784  0.7322037495044036
  0.5747320423781571  0.4686229970597325  0.2175131984281458
  0.9714864418166109  0.1964292884490073  0.3993989961908260
  0.4565949306443017  0.9014576781121836  0.7076950202362915
  0.3923262014438516  0.9918800744737640  0.1995995421407923
  0.6970929221196478  0.4764278175899505  0.8968630670663981
  0.1849952328063065  0.3992835612820350  1.0041361913197209
  0.8699213491309953  0.7299481185939509  0.5059288911241376
  0.1076218973955839  0.2852513402771654  0.5082924537847411
  0.5939429599844274  0.9976655948032569  0.8073267276950776
  0.5258956069325729  0.1145379097010962  0.2767684660647433
  0.8173477415600463  0.6008004384973736 -0.0138894921885136
  0.2945284248058437  0.5230280707448132  0.1052594765614309
  0.0324401759080714  0.8126600206589731  0.5899661764833614
 
             NaN             NaN             NaN
             NaN             NaN             NaN
             NaN             NaN             NaN
             NaN             NaN             NaN
             NaN             NaN             NaN
             NaN             NaN             NaN
             NaN             NaN             NaN
             NaN             NaN             NaN
             NaN             NaN             NaN
             NaN             NaN             NaN
             NaN             NaN             NaN
             NaN             NaN             NaN
             NaN             NaN             NaN
             NaN             NaN             NaN
             NaN             NaN             NaN
             NaN             NaN             NaN
             NaN             NaN             NaN
             NaN             NaN             NaN
             NaN             NaN             NaN
             NaN             NaN             NaN
             NaN             NaN             NaN
             NaN             NaN             NaN
             NaN             NaN             NaN
             NaN             NaN             NaN
             NaN             NaN             NaN
             NaN             NaN             NaN
             NaN             NaN             NaN
             NaN             NaN             NaN
             NaN             NaN             NaN
             NaN             NaN             NaN
             NaN             NaN             NaN
             NaN             NaN             NaN
             NaN             NaN             NaN
             NaN             NaN             NaN
             NaN             NaN             NaN
             NaN             NaN             NaN
