Ca1 Mn4 S6 O24                          
   1.00000000000000     
     7.7524199999999999    0.0833920000000000    4.9283159999999997
     2.7690290000000002    6.9678110000000002    4.8022999999999998
     0.5535670000000000    0.1238520000000000    8.9532579999999999
   Ca   Mn   S    O 
     1     4     6    24
Direct
  0.3322602543295193  0.6819341444103199  0.5306656425420107
  0.6571405037252985  0.6413820899227549  0.6511695373959784
  0.1413829258762014  0.1581271659312307  0.1438173151293885
  0.8290777079834015  0.8545550350836995  0.8428469779989608
  0.3564605497394867  0.3506746222668368  0.3568300899662417
  0.9720438214113802  0.2309649291002985  0.5321102101964144
  0.4340773817126333  0.0531241643269809  0.7573044019132359
  0.5527347002818287  0.9594871199951033  0.2383439429251544
  0.7391988376521377  0.4723576664304568  0.0567202650659627
  0.2534674759111658  0.5210342980516182  0.9609134131991224
  0.0294316704905787  0.7634096941641098  0.4427001790104307
  0.4179326016589168  0.5730596718380554  0.7763166087558414
  0.9362207150993884  0.3439551928278410  0.0205225332963932
  0.7900202421703160  0.3580833928323847  0.6234727726131831
  0.0028213886722625  0.9698410386280749  0.3300064619501536
  0.6081598080683306  0.7650683615084130  0.3846971056436865
  0.2934727289368899  0.0203911197756990  0.9684723337970850
  0.6971644212666599  0.9725731132313475  0.0367471850402881
  0.2322450386399237  0.6458812644458582  0.3640253458593008
  0.0821209337671718  0.6656207266390086  0.9237426218901528
  0.3545423656624221  0.2517487566752481  0.6358701773968712
  0.9837617831148791  0.0227426089148078  0.6477999157025267
  0.6062589354796145  0.3973845509698692  0.2572666189093045
  0.9883103245181502  0.2810371316889037  0.3339476800137138
  0.4605973398093487  0.9094272618576611  0.7047612948771214
  0.3681465357678153  0.9761212488728535  0.2653496320465110
  0.6835131138131945  0.5123884922339992  0.9126699918229350
  0.2843619355126900  0.3308278785380449  0.9742135398929903
  0.9052301731737333  0.7097358258471139  0.4474333354658854
  0.1325210763269628  0.2426968864910771  0.5148807890379038
  0.6150315779106624  0.0291490856037402  0.7380242122016138
  0.5330293506263537  0.1102937954719656  0.2736177096811468
  0.7166317420940875  0.6609809957751932  0.0433045986735802
  0.2565670716492343  0.5069398386526803  0.1265894443486873
 -0.0054768829672857  0.7194775791115330  0.6476861335916201
 
             NaN             NaN             NaN
             NaN             NaN             NaN
             NaN             NaN             NaN
             NaN             NaN             NaN
             NaN             NaN             NaN
             NaN             NaN             NaN
             NaN             NaN             NaN
             NaN             NaN             NaN
             NaN             NaN             NaN
             NaN             NaN             NaN
             NaN             NaN             NaN
             NaN             NaN             NaN
             NaN             NaN             NaN
             NaN             NaN             NaN
             NaN             NaN             NaN
             NaN             NaN             NaN
             NaN             NaN             NaN
             NaN             NaN             NaN
             NaN             NaN             NaN
             NaN             NaN             NaN
             NaN             NaN             NaN
             NaN             NaN             NaN
             NaN             NaN             NaN
             NaN             NaN             NaN
             NaN             NaN             NaN
             NaN             NaN             NaN
             NaN             NaN             NaN
             NaN             NaN             NaN
             NaN             NaN             NaN
             NaN             NaN             NaN
             NaN             NaN             NaN
             NaN             NaN             NaN
             NaN             NaN             NaN
             NaN             NaN             NaN
             NaN             NaN             NaN
