Ca1 Mn4 S6 O24
1.0
7.752420 0.083392 4.928316
2.769029 6.967811 4.802300
0.553567 0.123852 8.953258
Ca Mn S O
1 4 6 24
direct
0.377707 0.680074 0.557473 Ca
0.654441 0.644693 0.646375 Mn
0.148849 0.151484 0.144385 Mn
0.828992 0.847980 0.845396 Mn
0.355143 0.352707 0.349252 Mn
0.956570 0.241769 0.532321 S
0.437439 0.047245 0.753245 S
0.547841 0.953161 0.238837 S
0.749086 0.460775 0.047948 S
0.249390 0.525711 0.955064 S
0.044252 0.756377 0.452828 S
0.396400 0.591615 0.761241 O
0.944525 0.333095 0.013575 O
0.773688 0.375452 0.610708 O
0.020532 0.962798 0.328811 O
0.618402 0.761349 0.375526 O
0.306718 0.014689 0.964293 O
0.683112 0.974446 0.032483 O
0.238393 0.631579 0.371669 O
0.065389 0.667710 0.957673 O
0.357566 0.243777 0.630338 O
0.961004 0.039579 0.660649 O
0.617381 0.383335 0.249765 O
0.984120 0.280970 0.334314 O
0.454707 0.903363 0.706751 O
0.363162 0.967254 0.273269 O
0.693062 0.499999 0.905362 O
0.273802 0.340385 0.964096 O
0.903428 0.712755 0.471972 O
0.110320 0.255820 0.521617 O
0.623266 0.022451 0.720365 O
0.526471 0.104134 0.275729 O
0.724184 0.649322 0.035602 O
0.280519 0.495232 0.110392 O
0.015157 0.722935 0.651053 O
