Fe12 P4                                 
   1.00000000000000     
     0.0035380006757738   -0.0018995750519850   -4.7849233280927699
    -4.6706072278236581   -4.6512943444988020   -2.3875533940570550
    -4.6755726518228471    4.6542483193714679   -2.3933744558713559
   Fe   P 
    12     4
Direct
  0.1210879772278059  0.0262212993961571  0.1811679125012950
  0.3327963867257679  0.9727973463068113  0.8190850160471004
  0.6948626256737679  0.1856479455866233  0.9754683135262623
  0.8558554668122491  0.8202106592090737  0.0245256360894915
  0.9414047793995854  0.6828910222933769  0.4041346011280053
  0.0283217270890845  0.3147293246544392  0.5967713210316096
  0.6522999743440056  0.4045960168240396  0.3167627766579296
  0.3746025409157974  0.5958114872098587  0.6832105016001756
  0.5561007023689787  0.0568615769361284  0.3762632870348490
  0.9902902022913531  0.9419494134703615  0.6242017198036691
  0.0672073535560208  0.3760474103324165  0.9423467743092317
  0.3862573749800082  0.6235183487296924  0.0563568300401567
  0.4375756037314565  0.7659978250121244  0.3429523006725435
  0.5472977439353890  0.2335828452140155  0.6557186300888869
  0.2156886020610736  0.3447561319940775  0.2352194544255219
  0.7983509388876490  0.6543813468308047  0.7658149250432718
 
  0.00000000E+00  0.00000000E+00  0.00000000E+00
  0.00000000E+00  0.00000000E+00  0.00000000E+00
  0.00000000E+00  0.00000000E+00  0.00000000E+00
  0.00000000E+00  0.00000000E+00  0.00000000E+00
  0.00000000E+00  0.00000000E+00  0.00000000E+00
  0.00000000E+00  0.00000000E+00  0.00000000E+00
  0.00000000E+00  0.00000000E+00  0.00000000E+00
  0.00000000E+00  0.00000000E+00  0.00000000E+00
  0.00000000E+00  0.00000000E+00  0.00000000E+00
  0.00000000E+00  0.00000000E+00  0.00000000E+00
  0.00000000E+00  0.00000000E+00  0.00000000E+00
  0.00000000E+00  0.00000000E+00  0.00000000E+00
  0.00000000E+00  0.00000000E+00  0.00000000E+00
  0.00000000E+00  0.00000000E+00  0.00000000E+00
  0.00000000E+00  0.00000000E+00  0.00000000E+00
  0.00000000E+00  0.00000000E+00  0.00000000E+00
