Ni6 P4 O16                              
   1.00000000000000     
     5.8047983288850160    0.0000000134103063   -0.1139309092387599
     0.0000000108235837    4.6828445727346617    0.0000000414766805
    -0.0010166363976009    0.0000000910212887   10.0632201739997047
   Ni   P    O 
     6     4    16
Direct
  0.5000926698255626  0.4999602707558708  0.4999563271598646
  0.5000926896638944  0.0000397372285192  0.9999563196875485
  0.2424466150923976  0.5128001580198216  0.7742421222359894
  0.7575088197368913  0.0127402062006396  0.7256541505959859
  0.7575088136016674  0.4872597931209555  0.2256542681973599
  0.2424466071677784  0.9871998417268841  0.2742422238762998
  0.2504910247640240  0.0776217143257441  0.5948125147575780
  0.7495062931372800  0.5776136521073809  0.9052037302326639
  0.7495062870564979  0.9223863477332372  0.4052037177899521
  0.2504910208168880  0.4223782846005761  0.0948125040895107
  0.2672520165228676  0.7539817723312225  0.6012655202485817
  0.7327502686405793  0.2539726270183067  0.8987740675809235
  0.7327502667670700  0.2460273677475797  0.3987740568947800
  0.2672520179411961  0.7460182335772458  0.1012655058058129
  0.2563430646377540  0.3078169452397788  0.9519110474393813
  0.7436159076371212  0.8077773826693075  0.5481078114168128
  0.7436158965822841  0.6922226253710591  0.0481078170786944
  0.2563430535933406  0.1921830412705958  0.4519110512477198
  0.0505876155601612  0.2004326182123037  0.6729635230772004
  0.9494140289241386  0.7003879577918397  0.8270661084754209
  0.9494140086218437  0.7996120419413657  0.3270660977619286
  0.0505875953197901  0.2995673815851276  0.1729635115328207
  0.4658498771241071  0.2342436277017725  0.6624993064267244
  0.5341418386207692  0.7342605390940165  0.8375436817097324
  0.5341418326051652  0.7657394607181232  0.3375436960583897
  0.4658498700389231  0.2657563719107401  0.1624993186223165
 
  0.00000000E+00  0.00000000E+00  0.00000000E+00
  0.00000000E+00  0.00000000E+00  0.00000000E+00
  0.00000000E+00  0.00000000E+00  0.00000000E+00
  0.00000000E+00  0.00000000E+00  0.00000000E+00
  0.00000000E+00  0.00000000E+00  0.00000000E+00
  0.00000000E+00  0.00000000E+00  0.00000000E+00
  0.00000000E+00  0.00000000E+00  0.00000000E+00
  0.00000000E+00  0.00000000E+00  0.00000000E+00
  0.00000000E+00  0.00000000E+00  0.00000000E+00
  0.00000000E+00  0.00000000E+00  0.00000000E+00
  0.00000000E+00  0.00000000E+00  0.00000000E+00
  0.00000000E+00  0.00000000E+00  0.00000000E+00
  0.00000000E+00  0.00000000E+00  0.00000000E+00
  0.00000000E+00  0.00000000E+00  0.00000000E+00
  0.00000000E+00  0.00000000E+00  0.00000000E+00
  0.00000000E+00  0.00000000E+00  0.00000000E+00
  0.00000000E+00  0.00000000E+00  0.00000000E+00
  0.00000000E+00  0.00000000E+00  0.00000000E+00
  0.00000000E+00  0.00000000E+00  0.00000000E+00
  0.00000000E+00  0.00000000E+00  0.00000000E+00
  0.00000000E+00  0.00000000E+00  0.00000000E+00
  0.00000000E+00  0.00000000E+00  0.00000000E+00
  0.00000000E+00  0.00000000E+00  0.00000000E+00
  0.00000000E+00  0.00000000E+00  0.00000000E+00
  0.00000000E+00  0.00000000E+00  0.00000000E+00
  0.00000000E+00  0.00000000E+00  0.00000000E+00
