Ni6 P4 O16
1.0
5.822859 0.000000 -0.115261
0.000000 4.694000 0.000000
0.000000 0.000000 10.101000
Ni P O
6 4 16
direct
0.500000 0.500000 0.500000 Ni2+
0.500000 0.000000 0.000000 Ni2+
0.241600 0.514500 0.774600 Ni2+
0.758400 0.014500 0.725400 Ni2+
0.758400 0.485500 0.225400 Ni2+
0.241600 0.985500 0.274600 Ni2+
0.250000 0.077800 0.594500 P5+
0.750000 0.577800 0.905500 P5+
0.750000 0.922200 0.405500 P5+
0.250000 0.422200 0.094500 P5+
0.266700 0.753400 0.601900 O2-
0.733300 0.253400 0.898100 O2-
0.733300 0.246600 0.398100 O2-
0.266700 0.746600 0.101900 O2-
0.256600 0.307200 0.951700 O2-
0.743400 0.807200 0.548300 O2-
0.743400 0.692800 0.048300 O2-
0.256600 0.192800 0.451700 O2-
0.050700 0.199700 0.672900 O2-
0.949300 0.699700 0.827100 O2-
0.949300 0.800300 0.327100 O2-
0.050700 0.300300 0.172900 O2-
0.465500 0.234900 0.662100 O2-
0.534500 0.734900 0.837900 O2-
0.534500 0.765100 0.337900 O2-
0.465500 0.265100 0.162100 O2-
