Ni4 P8
1.0
5.470600 0.000000 0.000000
0.000000 5.470600 0.000000
0.000000 0.000000 5.470600
Ni P
4 8
direct
0.500000 0.500000 0.000000 Ni2+
0.500000 0.000000 0.500000 Ni2+
0.000000 0.500000 0.500000 Ni2+
0.000000 0.000000 0.000000 Ni2+
0.111900 0.888100 0.388100 P-
0.888100 0.388100 0.111900 P-
0.388100 0.111900 0.888100 P-
0.611900 0.611900 0.611900 P-
0.888100 0.111900 0.611900 P-
0.111900 0.611900 0.888100 P-
0.611900 0.888100 0.111900 P-
0.388100 0.388100 0.388100 P-
