Ti2 P2 O8                               
   1.00000000000000     
    -2.6396961425586141   -3.9400656265183605    0.0000135338819742
    -2.6396939714557210    3.9400641239960144   -0.0000173577559064
    -0.0000051873806246    0.0000249693671488   -6.5492154649605876
   Ti   P    O 
     2     2     8
Direct
  0.9999559792724568  0.9999557804235195  0.4999999668414787
  0.9999556918553623  0.9999560730012789  0.9999999671308970
  0.6479845765071204  0.3519972652670091  0.7500043660973148
  0.3519973044576332  0.6479848001132993  0.2499955334800035
  0.7791379064200612  0.7061436509973618  0.7499994588862933
  0.7061434484499713  0.7791379685927353  0.2500001713763140
  0.2208842612689708  0.2938566062816079  0.2500004965756801
  0.2938566287785491  0.2208843827175357  0.7499997829365768
  0.7546185841921940  0.2454222957219443  0.5574188912733149
  0.2454222562056927  0.7546193606283893  0.4425811404792697
  0.7546189680171835  0.2454253512486915  0.9425772882040846
  0.2454243945748047  0.7546164650066203  0.0574229367187726
 
  0.00000000E+00  0.00000000E+00  0.00000000E+00
  0.00000000E+00  0.00000000E+00  0.00000000E+00
  0.00000000E+00  0.00000000E+00  0.00000000E+00
  0.00000000E+00  0.00000000E+00  0.00000000E+00
  0.00000000E+00  0.00000000E+00  0.00000000E+00
  0.00000000E+00  0.00000000E+00  0.00000000E+00
  0.00000000E+00  0.00000000E+00  0.00000000E+00
  0.00000000E+00  0.00000000E+00  0.00000000E+00
  0.00000000E+00  0.00000000E+00  0.00000000E+00
  0.00000000E+00  0.00000000E+00  0.00000000E+00
  0.00000000E+00  0.00000000E+00  0.00000000E+00
  0.00000000E+00  0.00000000E+00  0.00000000E+00
