Ca1 Ni4 S6 O24                          
   1.00000000000000     
     7.4559030000000002    0.2868210000000000    4.3886789999999998
     2.8044579999999999    6.8027049999999996    4.7275530000000003
     0.6489030000000000    0.2914720000000000    8.7929460000000006
   Ca   Ni   S    O 
     1     4     6    24
Direct
  0.4513937132295660  0.5531054441239368  0.4943355091666082
  0.6406178363312705  0.6509064088536803  0.6474066104610525
  0.1441191454985288  0.1584469327094620  0.1517426214602219
  0.8436143980634732  0.8475651993684795  0.8431380889719549
  0.3509474068490157  0.3466910082688583  0.3609237176365868
  0.9531861723027300  0.2456856465451341  0.5360062892161677
  0.4468417072735050  0.0423677223512342  0.7598943900061861
  0.5479877357243825  0.9649671107243288  0.2392406562061170
  0.7413390869224337  0.4671882759185300  0.0491951453732904
  0.2374372082024895  0.5378037952617631  0.9601880821254456
  0.0358139647895130  0.7608956794536375  0.4506598694426080
  0.3764910938426433  0.6183351418593609  0.7576872785612795
  0.9497120556854594  0.3264643301899783  0.0128086036923041
  0.7495119275104223  0.3730056485406131  0.6268921651092443
  0.9993791950597227  0.9792825145018580  0.3279832956044121
  0.6286905263317374  0.7519900121889538  0.3751161204181334
  0.3187952581203534  0.0077172500414564  0.9686594082378629
  0.6753731071029454  0.9976750504219212  0.0316239159744050
  0.2377775838332492  0.6385832572268078  0.3501709180295795
  0.0311141080976009  0.6837932400300792  0.9826836070381162
  0.3657487678968857  0.2562591173379647  0.6272433751177011
  0.9879908151445870  0.0269517587161528  0.6588571177617226
  0.6097687273496826  0.3883918190439384  0.2576979481196009
  0.9663502233866468  0.3015528977905568  0.3359076226883472
  0.4627869981839937  0.9063463813967144  0.7045158646045695
  0.3460525722977274  0.9783221086347046  0.2835174637784951
  0.6723988921242335  0.5074299957958304  0.9100286142185907
  0.2679541154725412  0.3498754415255794  0.9595163460589962
  0.8824526329964280  0.7216191682574293  0.4725907242873875
  0.1058986149188602  0.2782531555614634  0.5256853426521561
  0.6505708799157749  0.0232374578898846  0.7166991773474045
  0.5324435016916697  0.1021602728688282  0.2928306499071353
  0.7151050400006742  0.6591435613151899  0.0380671249119139
  0.2897725745531574  0.4931832030491792  0.1125100049675182
  0.0387990516655606  0.7013345587108213  0.6451315492456866
 
             NaN             NaN             NaN
             NaN             NaN             NaN
             NaN             NaN             NaN
             NaN             NaN             NaN
             NaN             NaN             NaN
             NaN             NaN             NaN
             NaN             NaN             NaN
             NaN             NaN             NaN
             NaN             NaN             NaN
             NaN             NaN             NaN
             NaN             NaN             NaN
             NaN             NaN             NaN
             NaN             NaN             NaN
             NaN             NaN             NaN
             NaN             NaN             NaN
             NaN             NaN             NaN
             NaN             NaN             NaN
             NaN             NaN             NaN
             NaN             NaN             NaN
             NaN             NaN             NaN
             NaN             NaN             NaN
             NaN             NaN             NaN
             NaN             NaN             NaN
             NaN             NaN             NaN
             NaN             NaN             NaN
             NaN             NaN             NaN
             NaN             NaN             NaN
             NaN             NaN             NaN
             NaN             NaN             NaN
             NaN             NaN             NaN
             NaN             NaN             NaN
             NaN             NaN             NaN
             NaN             NaN             NaN
             NaN             NaN             NaN
             NaN             NaN             NaN
