Ca1 Ni4 S6 O24                          
   1.00000000000000     
     7.4559030000000002    0.2868210000000000    4.3886789999999998
     2.8044579999999999    6.8027049999999996    4.7275530000000003
     0.6489030000000000    0.2914720000000000    8.7929460000000006
   Ca   Ni   S    O 
     1     4     6    24
Direct
  0.4602363567630511  0.5344907473198688  0.5023028879765490
  0.6378884908620092  0.6485786540734714  0.6502828321629898
  0.1445118912980706  0.1563883681283017  0.1541311263121023
  0.8458265069391760  0.8484112951081589  0.8423426839842700
  0.3457436201293003  0.3561486568841103  0.3550510661381846
  0.9484247535954277  0.2491527526687997  0.5370086376924634
  0.4498775739503719  0.0427501086569640  0.7605679199890110
  0.5474082491738754  0.9632104838334297  0.2304373513853046
  0.7461310538053694  0.4653651850375904  0.0511968432725416
  0.2315681763208313  0.5463016565036585  0.9449768262168664
  0.0335345006693723  0.7602963639617848  0.4522017648722701
  0.3709177634899580  0.6302799177044472  0.7564237573440559
  0.9553476523223553  0.3225556228085502  0.0173329756839305
  0.7458756471363754  0.3740704813648970  0.6282366734921878
 -0.0043200432880288  0.9751746289544381  0.3310716243089763
  0.6191853118014441  0.7554511647176575  0.3765788021685451
  0.3256141105824579  0.0046562420109143  0.9659904835270610
  0.6701427929091821  0.9986676846518191  0.0352543402061376
  0.2391557619519383  0.6373199163473540  0.3479323342275115
  0.0312600607585946  0.6816131701601883  0.9861547307068483
  0.3663373204977413  0.2546898399788515  0.6270515281181116
  0.9876541432027779  0.0290935034914094  0.6596700110761274
  0.6119625563473317  0.3859017677310500  0.2587128546377535
  0.9646569707576560  0.3038518518303980  0.3380022377265290
  0.4695935867052190  0.9035476444416100  0.7003618824703737
  0.3402431036133695  0.9817562774861355  0.2812102342683796
  0.6828552770324435  0.4973755845977063  0.9091911495521349
  0.2721686293694053  0.3536975398167135  0.9569102824813711
  0.8819718139431481  0.7157068574718910  0.4760498178453475
  0.1027903822947002  0.2826070998209106  0.5276421999300177
  0.6539731943363442  0.0257437115267617  0.7131424792563890
  0.5242685673820157  0.1103489344025557  0.2945919160989277
  0.7172755820590567  0.6579750552689969  0.0345505692365916
  0.2936200461667281  0.4941739241937328  0.1199326048902936
  0.0405914659667892  0.6990924141575108  0.6446391259781583
 
             NaN             NaN             NaN
             NaN             NaN             NaN
             NaN             NaN             NaN
             NaN             NaN             NaN
             NaN             NaN             NaN
             NaN             NaN             NaN
             NaN             NaN             NaN
             NaN             NaN             NaN
             NaN             NaN             NaN
             NaN             NaN             NaN
             NaN             NaN             NaN
             NaN             NaN             NaN
             NaN             NaN             NaN
             NaN             NaN             NaN
             NaN             NaN             NaN
             NaN             NaN             NaN
             NaN             NaN             NaN
             NaN             NaN             NaN
             NaN             NaN             NaN
             NaN             NaN             NaN
             NaN             NaN             NaN
             NaN             NaN             NaN
             NaN             NaN             NaN
             NaN             NaN             NaN
             NaN             NaN             NaN
             NaN             NaN             NaN
             NaN             NaN             NaN
             NaN             NaN             NaN
             NaN             NaN             NaN
             NaN             NaN             NaN
             NaN             NaN             NaN
             NaN             NaN             NaN
             NaN             NaN             NaN
             NaN             NaN             NaN
             NaN             NaN             NaN
