Ca1 Co4 P6 O24                          
   1.00000000000000     
     2.6696749999999998    6.9889619999999999    4.5078930000000001
     0.3107530000000000    0.2917770000000000    8.7163179999999993
     7.4269819999999998    0.2572000000000000    4.5555800000000000
   Ca   Co   P    O 
     1     4     6    24
Direct
  0.4450110306013141  0.5517789722112179  0.4991336000350788
  0.6392955404589683  0.6504144241562673  0.6496073119577175
  0.1353242786754620  0.1467520372593509  0.1407030583135638
  0.8536188079062832  0.8617067641001678  0.8550816398922657
  0.3486763582685529  0.3495702726259251  0.3579021555941992
  0.2471121178239373  0.5285885347930858  0.9608719066946907
  0.0272241678167007  0.7524128210022712  0.4677553326613179
  0.9570928615697005  0.2580113078547805  0.5259270475640306
  0.4603949572517598  0.0424551369394193  0.7468889290676990
  0.5318755482062895  0.9643636783498625  0.2499806336114653
  0.7383983194786052  0.4761043972040605  0.0463204330808287
  0.6043084301405348  0.7581047196756737  0.3943635607022168
  0.3075492136070722  0.0185979564262129  0.9569148368573980
  0.3931495079213049  0.6085687450355797  0.7592922137229532
  0.9414828426092476  0.3157524037654804  0.0216736528179103
  0.7521587729620184  0.3962496556711881  0.6088866554794393
  0.0057185540510697  0.9652509098850761  0.3269435864112977
  0.9798584024138057  0.0446184487862581  0.6666310111723999
  0.5899742685353283  0.4049385409803627  0.2489118799151530
  0.6845109150643671  0.9900298887142918  0.0410368254664756
  0.2292847797635036  0.6157491864886714  0.3765012443033919
  0.0438189599753326  0.6894869758100891  0.9767828307319469
  0.3878464956134919  0.2530867313060397  0.6070787774800166
  0.2622845876087953  0.3456642630027177  0.9619687997858328
  0.8684800609235440  0.7068250959016552  0.4920957414046563
  0.9855624052798890  0.2886939014564452  0.3234657512389076
  0.4807181410460851  0.8962539067703257  0.6864653529013880
  0.3395294587233900  0.9820530978211672  0.2677751262485090
  0.6811184099349286  0.5226997759164747  0.8830606381526560
  0.3009855585968116  0.4830289807996694  0.1236881650388298
  0.0241758520146991  0.7153029633396059  0.6622296179377225
  0.1147619703390457  0.2994896847583544  0.5121662577497232
  0.6566648420574970  0.0082794928709111  0.7352181718161696
  0.5058212694905414  0.1161103168547406  0.3084589478756294
  0.7297556803765729  0.6610761742035880  0.0337762934301542
 
             NaN             NaN             NaN
             NaN             NaN             NaN
             NaN             NaN             NaN
             NaN             NaN             NaN
             NaN             NaN             NaN
             NaN             NaN             NaN
             NaN             NaN             NaN
             NaN             NaN             NaN
             NaN             NaN             NaN
             NaN             NaN             NaN
             NaN             NaN             NaN
             NaN             NaN             NaN
             NaN             NaN             NaN
             NaN             NaN             NaN
             NaN             NaN             NaN
             NaN             NaN             NaN
             NaN             NaN             NaN
             NaN             NaN             NaN
             NaN             NaN             NaN
             NaN             NaN             NaN
             NaN             NaN             NaN
             NaN             NaN             NaN
             NaN             NaN             NaN
             NaN             NaN             NaN
             NaN             NaN             NaN
             NaN             NaN             NaN
             NaN             NaN             NaN
             NaN             NaN             NaN
             NaN             NaN             NaN
             NaN             NaN             NaN
             NaN             NaN             NaN
             NaN             NaN             NaN
             NaN             NaN             NaN
             NaN             NaN             NaN
             NaN             NaN             NaN
