Ca1 Co4 P6 O24
1.0
2.669675 6.988962 4.507893
0.310753 0.291777 8.716318
7.426982 0.257200 4.555580
Ca Co P O
1 4 6 24
direct
0.465656 0.546230 0.512024 Ca
0.645958 0.643967 0.644513 Co
0.138922 0.139832 0.139926 Co
0.854595 0.854039 0.854546 Co
0.351724 0.349974 0.350625 Co
0.249992 0.527502 0.957742 P
0.036672 0.743537 0.468276 P
0.957465 0.251032 0.527126 P
0.467691 0.036914 0.744104 P
0.529163 0.958310 0.248673 P
0.744349 0.468265 0.038296 P
0.607755 0.754413 0.391478 O
0.316958 0.014802 0.953208 O
0.391897 0.607212 0.753363 O
0.951947 0.316052 0.014471 O
0.755027 0.393195 0.606151 O
0.015986 0.951976 0.317879 O
0.978376 0.041934 0.677381 O
0.602548 0.388973 0.242355 O
0.678744 0.982093 0.039335 O
0.239462 0.601503 0.389407 O
0.043051 0.680822 0.978354 O
0.388728 0.241722 0.602473 O
0.270051 0.335771 0.973287 O
0.879378 0.693903 0.495405 O
0.975119 0.273485 0.332682 O
0.494492 0.881988 0.690226 O
0.334284 0.975062 0.273424 O
0.690330 0.501229 0.879959 O
0.302804 0.495844 0.116158 O
0.020679 0.720924 0.662185 O
0.116159 0.297910 0.501021 O
0.661746 0.017534 0.722223 O
0.498967 0.115124 0.302777 O
0.724614 0.659401 0.023716 O
