Ca4 V16 P24 O96
1.0
-4.609631 6.957839 8.680218
5.098748 -6.654732 8.705568
9.820915 6.970644 0.268713
Ca V P O
4 16 24 96
direct
0.562577 0.740619 0.432501 Ca
0.504478 0.999819 0.986326 Ca
0.991789 0.002855 0.497479 Ca
0.013771 0.485202 0.997654 Ca
0.641465 0.630755 0.651068 V
0.643650 0.148428 0.140741 V
0.142953 0.147381 0.642596 V
0.142230 0.648182 0.143361 V
0.138510 0.145906 0.139715 V
0.136041 0.642009 0.641824 V
0.639110 0.641759 0.135725 V
0.636752 0.140968 0.640354 V
0.851919 0.854539 0.855897 V
0.857072 0.348320 0.355376 V
0.351891 0.354314 0.855924 V
0.347869 0.862618 0.349772 V
0.357881 0.356574 0.357935 V
0.346180 0.851016 0.853899 V
0.856775 0.846065 0.351137 V
0.851915 0.350986 0.853621 V
0.385623 0.742635 0.607891 P
0.389120 0.247733 0.107074 P
0.884902 0.243572 0.606438 P
0.891010 0.746092 0.102413 P
0.393679 0.608160 0.252425 P
0.387423 0.107050 0.751661 P
0.890630 0.104917 0.251433 P
0.889315 0.606607 0.758596 P
0.607822 0.383936 0.749334 P
0.605160 0.892502 0.233646 P
0.102801 0.889907 0.740622 P
0.107362 0.388645 0.244325 P
0.247922 0.390299 0.606817 P
0.243653 0.892388 0.103375 P
0.741902 0.885717 0.603966 P
0.754704 0.388849 0.107667 P
0.753155 0.600260 0.389042 P
0.747227 0.104354 0.886344 P
0.239924 0.110945 0.389545 P
0.248151 0.604950 0.889827 P
0.606617 0.249111 0.387828 P
0.606090 0.754951 0.893363 P
0.104212 0.744044 0.393232 P
0.107484 0.250110 0.890836 P
0.683061 0.587370 0.496686 O
0.679903 0.084036 0.995935 O
0.171095 0.081297 0.495347 O
0.181490 0.579558 0.998785 O
0.166152 0.484731 0.630547 O
0.163459 0.987652 0.126815 O
0.662444 0.984131 0.621559 O
0.677767 0.486504 0.132632 O
0.491521 0.668560 0.595392 O
0.492722 0.174529 0.078153 O
0.992601 0.176423 0.581862 O
0.992342 0.668295 0.079194 O
0.623241 0.164555 0.482552 O
0.621567 0.661040 0.980668 O
0.111480 0.655079 0.484483 O
0.130054 0.164543 0.983723 O
0.589400 0.497509 0.687315 O
0.587792 0.999794 0.165982 O
0.080000 0.000632 0.676091 O
0.086860 0.500344 0.180410 O
0.492400 0.616857 0.166875 O
0.487041 0.132328 0.670667 O
0.988093 0.125366 0.168765 O
0.987583 0.631732 0.677082 O
0.510381 0.363123 0.827388 O
0.508051 0.885286 0.320131 O
0.006759 0.866330 0.821185 O
0.013440 0.367610 0.328729 O
0.496187 0.313814 0.405763 O
0.494923 0.819285 0.913925 O
0.003901 0.824512 0.413750 O
0.995961 0.313116 0.914154 O
0.833522 0.506375 0.364418 O
0.831875 0.010870 0.863441 O
0.318195 0.007006 0.368016 O
0.333306 0.512179 0.865700 O
0.406707 0.501678 0.319960 O
0.414100 0.997305 0.814631 O
0.910673 0.993902 0.316439 O
0.918076 0.497857 0.822419 O
0.389955 0.823302 0.505915 O
0.367495 0.327837 0.006348 O
0.864983 0.325036 0.507067 O
0.878252 0.832009 0.006802 O
0.315887 0.410612 0.500598 O
0.317177 0.917789 0.999040 O
0.820871 0.908992 0.502431 O
0.828103 0.413608 0.003488 O
0.287413 0.667528 0.611326 O
0.293169 0.168174 0.124517 O
0.794899 0.157874 0.619416 O
0.790975 0.672685 0.115756 O
0.788700 0.596252 0.687611 O
0.786923 0.101101 0.185121 O
0.286860 0.096893 0.680405 O
0.287114 0.612922 0.189137 O
0.629294 0.300061 0.660840 O
0.606021 0.800830 0.151056 O
0.118708 0.804057 0.651789 O
0.111949 0.305461 0.151063 O
0.675555 0.783682 0.581708 O
0.684653 0.288795 0.089815 O
0.179763 0.284819 0.594419 O
0.177132 0.787957 0.087808 O
0.666873 0.630631 0.300921 O
0.659500 0.116147 0.798790 O
0.156729 0.126985 0.298767 O
0.163599 0.624556 0.800443 O
0.606388 0.701976 0.780845 O
0.596702 0.184420 0.279908 O
0.098859 0.188054 0.784715 O
0.091100 0.689142 0.282829 O
0.405112 0.313755 0.207619 O
0.391172 0.808585 0.711375 O
0.906211 0.808320 0.207624 O
0.895111 0.311960 0.707977 O
0.399786 0.703882 0.331408 O
0.370401 0.193035 0.839162 O
0.882690 0.189228 0.341786 O
0.868964 0.694241 0.843840 O
0.215998 0.390187 0.304845 O
0.207412 0.899398 0.808942 O
0.708234 0.886223 0.304480 O
0.711581 0.397808 0.818162 O
0.816002 0.862045 0.703539 O
0.837102 0.362636 0.200837 O
0.326823 0.366077 0.702607 O
0.326299 0.869184 0.195789 O
0.311344 0.207634 0.402249 O
0.310919 0.711257 0.905461 O
0.821268 0.706689 0.399086 O
0.811355 0.209227 0.897272 O
0.697516 0.331275 0.371108 O
0.692869 0.843377 0.895258 O
0.204476 0.817108 0.386229 O
0.190621 0.342518 0.881779 O
