Ca4 Co4 P6 O24                          
   1.00000000000000     
     2.5734189999999999    7.2850710000000003    4.3856909999999996
    -0.0097730000000000    0.0398160000000000    8.6652450000000005
     7.6026509999999998    0.0719650000000000    4.1926750000000004
   Ca   Co   P    O 
     4     4     6    24
Direct
  0.4837609110427012  0.5481202507538501  0.4907980549460325
  0.9284447016176092  0.0146494335362236  0.0312496273702015
  0.3681040845339184  0.7502100112253435  0.0912723086221801
  0.1070851616474231  0.3954350529488851  0.7551892020326018
  0.6451312948012932  0.6364315203614580  0.6568248547055878
  0.1482868471841671  0.1476809331963075  0.1588464065305272
  0.8540187281002679  0.8668784086651885  0.8356242914766941
  0.3349438542619825  0.3347434378446795  0.3521124614926123
  0.2401126786769375  0.5556293659104561  0.9530137700616698
  0.0363118437151449  0.7586009968573948  0.4571991527196296
  0.9457551304832226  0.2567892796941508  0.5552465897704926
  0.4591378701344225  0.0452513064253630  0.7480285564572845
  0.5368351499558252  0.9451658604511313  0.2466421109444936
  0.7548510244712843  0.4613962284738043  0.0331708453426796
  0.5562337688881277  0.7936997460437515  0.4308315072207146
  0.2653749333479228  0.0783475743467601  0.9116223297507715
  0.4110806614317970  0.5650099779539768  0.7745424499384125
  0.9107381828550845  0.2725932046438240  0.0704242933763458
  0.7660600794890494  0.4257404086887452  0.5528762806931671
  0.0611686851438003  0.9024223677106153  0.2595671984655146
  0.9059524870172194  0.0997676788641605  0.7413458049192428
  0.5893532510130424  0.4903029719311703  0.2097042374706977
  0.7229781158806707  0.8949970571173845  0.0913486630649976
  0.2244485326692376  0.5887501480456373  0.4375900373409078
  0.0841164248315360  0.7455027072234613  0.9282116573802721
  0.4279221587388630  0.2216002292983509  0.5808171535248190
  0.1915900675256803  0.3958968324086386  0.9789805153219492
  0.8791965125460384  0.6932126339704563  0.5257591435140919
  0.0158399524843839  0.1987564761300711  0.3860237676051352
  0.4887883068691806  0.8560368331679777  0.7458289838335701
  0.3837159085947605  0.9356208365181689  0.2176269299115723
  0.7013512278624389  0.4587575356679567  0.8920981623587981
  0.2805710209630992  0.5245297544184788  0.1207579175044647
  0.0262348312648134  0.8222624896811043  0.5984731143891995
  0.0935741193557099  0.3023002307932768  0.5530671984444601
  0.6107706823871943  0.0226896557216389  0.7976154940154357
  0.5013555355817249  0.1373301781498687  0.2423801600542870
  0.8380432481976530  0.6160993643202567  0.9362302539161089
 
             NaN             NaN             NaN
             NaN             NaN             NaN
             NaN             NaN             NaN
             NaN             NaN             NaN
             NaN             NaN             NaN
             NaN             NaN             NaN
             NaN             NaN             NaN
             NaN             NaN             NaN
             NaN             NaN             NaN
             NaN             NaN             NaN
             NaN             NaN             NaN
             NaN             NaN             NaN
             NaN             NaN             NaN
             NaN             NaN             NaN
             NaN             NaN             NaN
             NaN             NaN             NaN
             NaN             NaN             NaN
             NaN             NaN             NaN
             NaN             NaN             NaN
             NaN             NaN             NaN
             NaN             NaN             NaN
             NaN             NaN             NaN
             NaN             NaN             NaN
             NaN             NaN             NaN
             NaN             NaN             NaN
             NaN             NaN             NaN
             NaN             NaN             NaN
             NaN             NaN             NaN
             NaN             NaN             NaN
             NaN             NaN             NaN
             NaN             NaN             NaN
             NaN             NaN             NaN
             NaN             NaN             NaN
             NaN             NaN             NaN
             NaN             NaN             NaN
             NaN             NaN             NaN
             NaN             NaN             NaN
             NaN             NaN             NaN
