Ca4 Co4 P6 O24                          
   1.00000000000000     
     2.5734189999999999    7.2850710000000003    4.3856909999999996
    -0.0097730000000000    0.0398160000000000    8.6652450000000005
     7.6026509999999998    0.0719650000000000    4.1926750000000004
   Ca   Co   P    O 
     4     4     6    24
Direct
  0.4837225488919908  0.5481379736861869  0.4908055850177198
  0.9284270720030513  0.0146521602972531  0.0312777949540646
  0.3681107039720163  0.7502010238635246  0.0912593386376486
  0.1071107103020079  0.3954234653554806  0.7551808387475973
  0.6451514093674874  0.6363943140858217  0.6568291058978664
  0.1481382668286544  0.1476060910990036  0.1588892628409782
  0.8540131355741137  0.8669009497262495  0.8356068980924456
  0.3348775155950129  0.3347354493529783  0.3521577240707309
  0.2401012434393316  0.5555974992573057  0.9530388965057475
  0.0363281709159848  0.7586198626366669  0.4571782890732657
  0.9457928160465471  0.2567973509102264  0.5552213800794700
  0.4591436230006758  0.0452563187709695  0.7480204444013913
  0.5368083216151732  0.9452153106905631  0.2466314497571701
  0.7548485008559902  0.4614167537369515  0.0331849735279912
  0.5562229499567569  0.7937462703466872  0.4308077702879690
  0.2653723260004657  0.0783406956385949  0.9116704935105485
  0.4110321047666593  0.5650056908671028  0.7745684269043691
  0.9107722334960496  0.2725876352385408  0.0704148823833294
  0.7661264816974458  0.4256949562267903  0.5528341897557987
  0.0611901057480657  0.9024350327305991  0.2595678563905365
  0.9059939010196868  0.0997668136445308  0.7413163774706484
  0.5893515514217116  0.4902857717095732  0.2097071453067393
  0.7229499221884853  0.8950278967963489  0.0913650522337457
  0.2244589879961850  0.5887385935310518  0.4375837170635156
  0.0841211591832027  0.7454874224084888  0.9282173952149915
  0.4279192757879243  0.2216025132986343  0.5808375642445637
  0.1916044624196435  0.3958408381251018  0.9790266650045300
  0.8792335124253381  0.6932292743018811  0.5257321789514425
  0.0159050737658436  0.1987444731880787  0.3859629801636040
  0.4887771115695076  0.8560661067802774  0.7458569937973958
  0.3836826037760783  0.9356486312892567  0.2176228191848830
  0.7013659276825289  0.4587367953654398  0.8921203639920031
  0.2805710253825444  0.5245170679710406  0.1207802221295590
  0.0262789321793759  0.8222755895602150  0.5984203769385146
  0.0936345624915002  0.3022842269881765  0.5530387042172804
  0.6107609605087132  0.0227148995442540  0.7976211141692764
  0.5012825238071038  0.1373851927074359  0.2423555707384170
  0.8380562438905537  0.6160920644815950  0.9362306441394328
 
             NaN             NaN             NaN
             NaN             NaN             NaN
             NaN             NaN             NaN
             NaN             NaN             NaN
             NaN             NaN             NaN
             NaN             NaN             NaN
             NaN             NaN             NaN
             NaN             NaN             NaN
             NaN             NaN             NaN
             NaN             NaN             NaN
             NaN             NaN             NaN
             NaN             NaN             NaN
             NaN             NaN             NaN
             NaN             NaN             NaN
             NaN             NaN             NaN
             NaN             NaN             NaN
             NaN             NaN             NaN
             NaN             NaN             NaN
             NaN             NaN             NaN
             NaN             NaN             NaN
             NaN             NaN             NaN
             NaN             NaN             NaN
             NaN             NaN             NaN
             NaN             NaN             NaN
             NaN             NaN             NaN
             NaN             NaN             NaN
             NaN             NaN             NaN
             NaN             NaN             NaN
             NaN             NaN             NaN
             NaN             NaN             NaN
             NaN             NaN             NaN
             NaN             NaN             NaN
             NaN             NaN             NaN
             NaN             NaN             NaN
             NaN             NaN             NaN
             NaN             NaN             NaN
             NaN             NaN             NaN
             NaN             NaN             NaN
