Ca4 V4 P6 O24
1.0
2.614083 7.267359 4.422787
-0.021478 0.051554 8.790400
7.670331 0.027167 4.290995
Ca V P O
4 4 6 24
direct
0.538390 0.473359 0.499530 Ca
0.958947 -0.004330 0.021790 Ca
0.381274 0.745557 0.097636 Ca
0.115671 0.397606 0.750307 Ca
0.639900 0.648124 0.639926 V
0.143410 0.144672 0.152713 V
0.855691 0.856916 0.847021 V
0.352497 0.343654 0.350957 V
0.247611 0.553633 0.942434 P
0.040326 0.754006 0.457183 P
0.955846 0.247076 0.562513 P
0.456075 0.039065 0.741636 P
0.539995 0.933289 0.249300 P
0.747936 0.463625 0.031997 P
0.578737 0.751584 0.408469 O
0.264250 0.061146 0.904518 O
0.410483 0.570950 0.757745 O
0.905082 0.275670 0.037574 O
0.771284 0.412735 0.583782 O
0.063631 0.901520 0.264173 O
0.917765 0.087750 0.744219 O
0.590741 0.458427 0.220150 O
0.724215 0.912982 0.082963 O
0.232397 0.591483 0.435151 O
0.084585 0.738005 0.925133 O
0.432467 0.231582 0.593612 O
0.202603 0.393159 0.969424 O
0.889280 0.684447 0.516224 O
-0.001941 0.208922 0.394047 O
0.481712 0.887505 0.685312 O
0.390279 0.938679 0.205870 O
0.662622 0.521571 0.891344 O
0.292508 0.527208 0.102788 O
0.014766 0.812031 0.607531 O
0.105549 0.290936 0.556543 O
0.607399 0.981822 0.809949 O
0.496828 0.101740 0.288007 O
0.832472 0.605216 -0.026933 O
