Ca1 Ni4 S6 O24
1.0
7.749922 0.261051 3.981387
2.741049 7.084009 4.230703
0.650996 0.177621 8.674984
Ca Ni S O
1 4 6 24
direct
0.250338 0.875348 0.602064 Ca
0.653279 0.649650 0.644720 Ni
0.133463 0.147283 0.141426 Ni
0.847919 0.840970 0.853027 Ni
0.359752 0.347790 0.350477 Ni
0.959475 0.250820 0.526519 S
0.443761 0.037396 0.748183 S
0.551378 0.966061 0.236889 S
0.743563 0.452218 0.050717 S
0.251786 0.533069 0.955357 S
0.035259 0.748979 0.457880 S
0.418214 0.558363 0.774081 O
0.894037 0.260727 0.081820 O
0.827630 0.437144 0.539788 O
0.108493 0.884559 0.273889 O
0.574629 0.786878 0.407316 O
0.272041 1.073544 0.912494 O
0.708651 0.935110 0.066214 O
0.155706 0.550836 0.467715 O
0.091435 0.720938 0.921916 O
0.432358 0.216073 0.582158 O
0.915264 0.091112 0.706650 O
0.570666 0.449389 0.223253 O
0.959659 0.226217 0.371825 O
0.443513 0.887481 0.713362 O
0.363575 1.005176 0.237622 O
0.699933 0.494031 0.888531 O
0.207240 0.379991 0.982674 O
0.836594 0.785546 0.497547 O
0.159027 0.219826 0.491448 O
0.616236 -0.028239 0.784108 O
0.545472 0.122372 0.262371 O
0.808151 0.594490 0.017161 O
0.289068 0.501742 0.115346 O
0.039218 0.776527 0.612735 O
