Ca4 Co4 P6 O24                          
   1.00000000000000     
     2.5715699999999999    7.2162439999999997    4.3387130000000003
     0.0244290000000000   -0.0326210000000000    8.6868900000000000
     7.6443950000000003    0.0064120000000000    4.2364009999999999
   Ca   Co   P    O 
     4     4     6    24
Direct
  0.2453939544726549  0.8572447650312744  0.5893437021843496
  0.9346611726826994  0.0123901987955420  0.0286335150669853
  0.3823526971206889  0.7448866959898450  0.1139305933603527
  0.1367924895097284  0.3882025860643958  0.7445140863325282
  0.6535634109777677  0.6137046792067135  0.6446814553471149
  0.1447411214563821  0.1487908363230218  0.1543310702792909
  0.8357940918903873  0.8598363030424160  0.8457775259491581
  0.3689838960789199  0.3375051223500496  0.3411218067158311
  0.2489979223034195  0.5488827207292344  0.9531350865583124
  0.0324837388145927  0.7517086162203558  0.4506580874237175
  0.9610121419434321  0.2495880371668068  0.5518537218994701
  0.4592650706243592  0.0266577254809141  0.7496297914414501
  0.5489232261642546  0.9449145677092521  0.2440583760553685
  0.7580585151119295  0.4451642261531132  0.0239436895234327
  0.5526942538875137  0.8038722215818725  0.4368842145711500
  0.2653669798101367  0.0672499527674977  0.9089179897676376
  0.4111188935750703  0.5662034732532888  0.7662090757315521
  0.9220055221332731  0.2667798149865782  0.0626860564241639
  0.7824008181119496  0.4131056422594757  0.5485482764161697
  0.0641386256612128  0.9017032342492215  0.2569116414762618
  0.9303890376618688  0.0831620940893764  0.7360354564122298
  0.5856563009867017  0.4556506635060815  0.1952172902936746
  0.7312408803488109  0.8803006488867594  0.0973650731531493
  0.2224958885285604  0.5909870036055063  0.4379649927269106
  0.0945138792390289  0.7411328922514073  0.9118443221467036
  0.4385811916705196  0.1916208727316349  0.5764127304983303
  0.1953559927349302  0.3902889751334769  0.9852616967393698
  0.8765612663967468  0.6907111992622387  0.5035284276403793
  0.0375359560670286  0.1747633682485839  0.3941256132954337
  0.4899006428883159  0.8338306463926918  0.7563234702691189
  0.3811307225979961  0.9451931387281803  0.2274857976527452
  0.7319371687615222  0.4366727343389417  0.8673032445893101
  0.2860095522328899  0.5284719938879240  0.1159080835267798
  0.0037248579233188  0.8176042289556873  0.6001496170258378
  0.1154348496276913  0.2914335587006437  0.5451466354299449
  0.6032447707349848  0.0092334636701759  0.8104034374691791
  0.5260183551730441  0.1371257230389528  0.2270671705145135
  0.8207670386730462  0.6126212171605679  0.9456255860916113
 
             NaN             NaN             NaN
             NaN             NaN             NaN
             NaN             NaN             NaN
             NaN             NaN             NaN
             NaN             NaN             NaN
             NaN             NaN             NaN
             NaN             NaN             NaN
             NaN             NaN             NaN
             NaN             NaN             NaN
             NaN             NaN             NaN
             NaN             NaN             NaN
             NaN             NaN             NaN
             NaN             NaN             NaN
             NaN             NaN             NaN
             NaN             NaN             NaN
             NaN             NaN             NaN
             NaN             NaN             NaN
             NaN             NaN             NaN
             NaN             NaN             NaN
             NaN             NaN             NaN
             NaN             NaN             NaN
             NaN             NaN             NaN
             NaN             NaN             NaN
             NaN             NaN             NaN
             NaN             NaN             NaN
             NaN             NaN             NaN
             NaN             NaN             NaN
             NaN             NaN             NaN
             NaN             NaN             NaN
             NaN             NaN             NaN
             NaN             NaN             NaN
             NaN             NaN             NaN
             NaN             NaN             NaN
             NaN             NaN             NaN
             NaN             NaN             NaN
             NaN             NaN             NaN
             NaN             NaN             NaN
             NaN             NaN             NaN
