Ca4 Co4 P6 O24                          
   1.00000000000000     
     2.5715699999999999    7.2162439999999997    4.3387130000000003
     0.0244290000000000   -0.0326210000000000    8.6868900000000000
     7.6443950000000003    0.0064120000000000    4.2364009999999999
   Ca   Co   P    O 
     4     4     6    24
Direct
  0.2454074366353726  0.8572212083730901  0.5894207597977457
  0.9346123104284806  0.0124373898931677  0.0286585820478702
  0.3823295547041173  0.7448960943878649  0.1139299240321256
  0.1368591364807798  0.3881464308794732  0.7444943640879913
  0.6535253993636849  0.6137121241006462  0.6447455820874429
  0.1449083420378366  0.1486501136123941  0.1543963394292489
  0.8359409598482157  0.8597816879180322  0.8457379274192428
  0.3691080426802694  0.3373767499142441  0.3410323627022090
  0.2489833256769635  0.5488792406918800  0.9531429412722361
  0.0324976737770530  0.7517116201496783  0.4506450441379251
  0.9610397139675847  0.2495673764988086  0.5518464075861964
  0.4593022629286302  0.0266840886876804  0.7496255315103616
  0.5488955516211995  0.9448650288870117  0.2441065339762009
  0.7580277593498620  0.4451657283837896  0.0239591893750765
  0.5526697487211094  0.8038590679947895  0.4368748783415627
  0.2653562153270292  0.0672678972822457  0.9089726555912659
  0.4111099881963391  0.5662195784950718  0.7662122178606149
  0.9220156267110688  0.2667987931973472  0.0627063199549373
  0.7823334605319477  0.4131321439734863  0.5485537560054666
  0.0641044527083017  0.9017233644068861  0.2569215288363090
  0.9303759485918505  0.0831866488053762  0.7360168595797073
  0.5856440514182645  0.4556787482925337  0.1951978866857021
  0.7311776739592935  0.8803326343499357  0.0973532933180282
  0.2224743802425297  0.5910069988873417  0.4379600627560104
  0.0945336090999351  0.7411490660698924  0.9118471577311578
  0.4385444422948333  0.1916236039246935  0.5764331110395455
  0.1953168765745029  0.3903453230149745  0.9852209953732962
  0.8765121022330421  0.6907299887616565  0.5035479079520883
  0.0375625102516884  0.1748143513776555  0.3940441249269984
  0.4899045941651368  0.8338362669479625  0.7563132856908528
  0.3811040456178381  0.9452135357058020  0.2274911243724505
  0.7319409742833616  0.4366740469539690  0.8673061621654767
  0.2860389672729708  0.5284682018493916  0.1158776107396898
  0.0037424490478612  0.8175758724173956  0.6001942679165587
  0.1154787664375788  0.2914033886149530  0.5450836983472863
  0.6031379958866240  0.0092750716316665  0.8104130780679116
  0.5260206625699986  0.1371156652799653  0.2270400633255103
  0.8207100891220320  0.6126703976337841  0.9456148007919690
 
             NaN             NaN             NaN
             NaN             NaN             NaN
             NaN             NaN             NaN
             NaN             NaN             NaN
             NaN             NaN             NaN
             NaN             NaN             NaN
             NaN             NaN             NaN
             NaN             NaN             NaN
             NaN             NaN             NaN
             NaN             NaN             NaN
             NaN             NaN             NaN
             NaN             NaN             NaN
             NaN             NaN             NaN
             NaN             NaN             NaN
             NaN             NaN             NaN
             NaN             NaN             NaN
             NaN             NaN             NaN
             NaN             NaN             NaN
             NaN             NaN             NaN
             NaN             NaN             NaN
             NaN             NaN             NaN
             NaN             NaN             NaN
             NaN             NaN             NaN
             NaN             NaN             NaN
             NaN             NaN             NaN
             NaN             NaN             NaN
             NaN             NaN             NaN
             NaN             NaN             NaN
             NaN             NaN             NaN
             NaN             NaN             NaN
             NaN             NaN             NaN
             NaN             NaN             NaN
             NaN             NaN             NaN
             NaN             NaN             NaN
             NaN             NaN             NaN
             NaN             NaN             NaN
             NaN             NaN             NaN
             NaN             NaN             NaN
