Ca6 Mn4 Si8 O28                         
   1.00000000000000     
    -0.0003524301021717    7.6264934814664169   -0.0020028150202323
     7.0854465448758219    3.8117209869221589    4.6141868146522658
     7.0853341786667183    3.8143352407049558   -5.4267220321312895
   Ca   Mn   Si   O 
     6     4     8    28
Direct
  0.3393759265008711  0.2496547625333463  0.7502441175480570
  0.6606337268622298  0.7503283406788412  0.2497571805360437
  0.2290909987779273  0.0629777318728486  0.5403198843445978
  0.1670624464150663  0.5632255875167758  0.0403496864412816
  0.7709193436739881  0.9370184230747398  0.4596799251938251
  0.8329343811452148  0.4367695088980383  0.9596499113072170
  0.9999462297660742  0.5000281897442065  0.4999834203823568
  0.0000108291310212  0.0000041689255141  0.9999950660472265
  0.7855519315262427  0.2498232728827077  0.7510635206215071
  0.2144505380752122  0.7502058365172459  0.2489337812217585
  0.5332754682321834  0.1968732414576806  0.1568396761138260
  0.1130396895854062  0.6967146930541901  0.6566952219365021
  0.4667255492434847  0.8031269514738568  0.8431599606287108
  0.8869596396810664  0.3032824417265090  0.3433039887944247
  0.5343872183264651  0.6068709739592677  0.6462966023033232
  0.2122790064432749  0.1069490544785197  0.1463720729876101
  0.4656153938242582  0.3931152497227259  0.3537117468492426
  0.7877215360572549  0.8930393155074512  0.8536324621686049
  0.3403655967539976  0.2401627759235154  0.0928462154082226
  0.3265916173258745  0.7401089380788832  0.5929764583168406
  0.6596372473333716  0.7598273846177293  0.9071552148149564
  0.6734190283424439  0.2598737490880225  0.4070258116226810
  0.5076675668583235  0.6258648419106763  0.8162413706603076
  0.0501259950996982  0.1259176906678761  0.3163273767700758
  0.4923187741533397  0.3741338051876966  0.1837631878762238
  0.9498823914607186  0.8740793834432310  0.6836770303874005
  0.5287095250884164  0.0434042602204414  0.3203195256145506
  0.1074230577957067  0.5434754731350893  0.8203825419373985
  0.4713104217122961  0.9565870743419680  0.6796760241318793
  0.8925745275295682  0.4565169231717832  0.1796136024698001
  0.5427180867947712  0.4162626385590258  0.6896108067027171
  0.3515724940233582  0.9165072901834961  0.1891887765662545
  0.4573018105205549  0.5837161761219392  0.3103916445099060
  0.6484396931489016  0.0834776550806993  0.8108137820817589
  0.2664637781117420  0.8107705508508403  0.9848134793092100
  0.9380035317411952  0.3108998110102945  0.4848635395598393
  0.7335450858763863  0.1892321959216332  0.0151898241711876
  0.0619865454549569  0.6891028842888787  0.5151361082072583
  0.2926566291777846  0.3250679783396961  0.5015787695111200
  0.8809027481815619  0.8252628645316591  0.0013812367182879
  0.7073268843323959  0.6749407920012374  0.4984187245307936
  0.1191005925787252  0.1747407654572868  0.9986179950141931
  0.1034742427118189  0.5855763199189283  0.2815146836124214
  0.0295020372099515  0.0856590443002787  0.7816883628183504
  0.8964243209713629  0.4144585037361423  0.7184808999482684
  0.9705759164435506  0.9143644858865798  0.2183187813019600
 
  0.00000000E+00  0.00000000E+00  0.00000000E+00
  0.00000000E+00  0.00000000E+00  0.00000000E+00
  0.00000000E+00  0.00000000E+00  0.00000000E+00
  0.00000000E+00  0.00000000E+00  0.00000000E+00
  0.00000000E+00  0.00000000E+00  0.00000000E+00
  0.00000000E+00  0.00000000E+00  0.00000000E+00
  0.00000000E+00  0.00000000E+00  0.00000000E+00
  0.00000000E+00  0.00000000E+00  0.00000000E+00
  0.00000000E+00  0.00000000E+00  0.00000000E+00
  0.00000000E+00  0.00000000E+00  0.00000000E+00
  0.00000000E+00  0.00000000E+00  0.00000000E+00
  0.00000000E+00  0.00000000E+00  0.00000000E+00
  0.00000000E+00  0.00000000E+00  0.00000000E+00
  0.00000000E+00  0.00000000E+00  0.00000000E+00
  0.00000000E+00  0.00000000E+00  0.00000000E+00
  0.00000000E+00  0.00000000E+00  0.00000000E+00
  0.00000000E+00  0.00000000E+00  0.00000000E+00
  0.00000000E+00  0.00000000E+00  0.00000000E+00
  0.00000000E+00  0.00000000E+00  0.00000000E+00
  0.00000000E+00  0.00000000E+00  0.00000000E+00
  0.00000000E+00  0.00000000E+00  0.00000000E+00
  0.00000000E+00  0.00000000E+00  0.00000000E+00
  0.00000000E+00  0.00000000E+00  0.00000000E+00
  0.00000000E+00  0.00000000E+00  0.00000000E+00
  0.00000000E+00  0.00000000E+00  0.00000000E+00
  0.00000000E+00  0.00000000E+00  0.00000000E+00
  0.00000000E+00  0.00000000E+00  0.00000000E+00
  0.00000000E+00  0.00000000E+00  0.00000000E+00
  0.00000000E+00  0.00000000E+00  0.00000000E+00
  0.00000000E+00  0.00000000E+00  0.00000000E+00
  0.00000000E+00  0.00000000E+00  0.00000000E+00
  0.00000000E+00  0.00000000E+00  0.00000000E+00
  0.00000000E+00  0.00000000E+00  0.00000000E+00
  0.00000000E+00  0.00000000E+00  0.00000000E+00
  0.00000000E+00  0.00000000E+00  0.00000000E+00
  0.00000000E+00  0.00000000E+00  0.00000000E+00
  0.00000000E+00  0.00000000E+00  0.00000000E+00
  0.00000000E+00  0.00000000E+00  0.00000000E+00
  0.00000000E+00  0.00000000E+00  0.00000000E+00
  0.00000000E+00  0.00000000E+00  0.00000000E+00
  0.00000000E+00  0.00000000E+00  0.00000000E+00
  0.00000000E+00  0.00000000E+00  0.00000000E+00
  0.00000000E+00  0.00000000E+00  0.00000000E+00
  0.00000000E+00  0.00000000E+00  0.00000000E+00
  0.00000000E+00  0.00000000E+00  0.00000000E+00
  0.00000000E+00  0.00000000E+00  0.00000000E+00
