Ca8 Fe8 O20                             
   1.00000000000000     
     5.4332920596378500    0.0000009375187500   -0.0000000667162659
     0.0000025546347623   14.7498680294824513   -0.0000000929100612
    -0.0000000668607366   -0.0000000379774434    5.6190508289497600
   Ca   Fe   O 
     8     8    20
Direct
  0.9774266043155038  0.1078415487051885  0.4753481858452133
  0.4774265994844029  0.3921584099176343  0.0246517179147929
  0.0225819893747499  0.6078437771020972  0.5246497741304452
  0.5225819879067899  0.8921561843319452  0.9753503368869829
  0.0225819927238433  0.8921561911224742  0.5246497511176997
  0.5225819895025055  0.6078437773292933  0.9753503520226587
  0.9774265924945666  0.3921584162711298  0.4753481673597832
  0.4774265993411859  0.1078415616171213  0.0246517306103371
  0.5000023300128618  0.0000003135557236  0.4999994031043258
  0.0000023235706621  0.4999996605379096  0.0000006542832409
  0.5000023149610797  0.4999996599309569  0.4999993455316414
  0.0000023268054221  0.0000003097086179  0.0000006000438688
  0.4471902401662362  0.2499999936190989  0.5662219021606916
  0.9471905070888553  0.2499999902010828  0.9337778693400907
  0.5528195427438050  0.7499999600315022  0.4337791019818127
  0.0528192583308282  0.7499999616840611  0.0662211231512941
  0.7651778321178000  0.9831428537297811  0.2652888603126797
  0.2651778497122450  0.5168571080003659  0.2347111823235792
  0.2348185412079786  0.4831435086900129  0.7347149605488994
  0.7348185184640244  0.0168564500186434  0.7652850040035730
  0.2348185391677333  0.0168564560626336  0.7347149498393861
  0.7348185164705825  0.4831435152486492  0.7652850148363015
  0.7651778286006135  0.5168571141799632  0.2652888526828647
  0.2651778469031356  0.9831428604091954  0.2347111977186316
  0.5294746013372773  0.1408285297049048  0.4245431044853092
  0.0294745690270872  0.3591714159397412  0.0754568360756096
  0.4705119259616737  0.6408306031872399  0.5754539342681255
  0.9705119637737027  0.8591693434324910  0.9245461282155816
  0.4705119414462686  0.8591693500905961  0.5754539141529946
  0.9705119618365643  0.6408306259927343  0.9245461388949252
  0.5294746079679484  0.3591714419053389  0.4245430958805727
  0.0294745826530303  0.1408285327350640  0.0754568647194063
  0.0952258579618075  0.2499999836232902  0.6232836830611106
  0.5952271239844720  0.2500006261609684  0.8767161370374410
  0.9047761084400534  0.7499999815328948  0.3767091713543635
  0.4047760841427177  0.7499999836896691  0.1232909541037728
 
  0.00000000E+00  0.00000000E+00  0.00000000E+00
  0.00000000E+00  0.00000000E+00  0.00000000E+00
  0.00000000E+00  0.00000000E+00  0.00000000E+00
  0.00000000E+00  0.00000000E+00  0.00000000E+00
  0.00000000E+00  0.00000000E+00  0.00000000E+00
  0.00000000E+00  0.00000000E+00  0.00000000E+00
  0.00000000E+00  0.00000000E+00  0.00000000E+00
  0.00000000E+00  0.00000000E+00  0.00000000E+00
  0.00000000E+00  0.00000000E+00  0.00000000E+00
  0.00000000E+00  0.00000000E+00  0.00000000E+00
  0.00000000E+00  0.00000000E+00  0.00000000E+00
  0.00000000E+00  0.00000000E+00  0.00000000E+00
  0.00000000E+00  0.00000000E+00  0.00000000E+00
  0.00000000E+00  0.00000000E+00  0.00000000E+00
  0.00000000E+00  0.00000000E+00  0.00000000E+00
  0.00000000E+00  0.00000000E+00  0.00000000E+00
  0.00000000E+00  0.00000000E+00  0.00000000E+00
  0.00000000E+00  0.00000000E+00  0.00000000E+00
  0.00000000E+00  0.00000000E+00  0.00000000E+00
  0.00000000E+00  0.00000000E+00  0.00000000E+00
  0.00000000E+00  0.00000000E+00  0.00000000E+00
  0.00000000E+00  0.00000000E+00  0.00000000E+00
  0.00000000E+00  0.00000000E+00  0.00000000E+00
  0.00000000E+00  0.00000000E+00  0.00000000E+00
  0.00000000E+00  0.00000000E+00  0.00000000E+00
  0.00000000E+00  0.00000000E+00  0.00000000E+00
  0.00000000E+00  0.00000000E+00  0.00000000E+00
  0.00000000E+00  0.00000000E+00  0.00000000E+00
  0.00000000E+00  0.00000000E+00  0.00000000E+00
  0.00000000E+00  0.00000000E+00  0.00000000E+00
  0.00000000E+00  0.00000000E+00  0.00000000E+00
  0.00000000E+00  0.00000000E+00  0.00000000E+00
  0.00000000E+00  0.00000000E+00  0.00000000E+00
  0.00000000E+00  0.00000000E+00  0.00000000E+00
  0.00000000E+00  0.00000000E+00  0.00000000E+00
  0.00000000E+00  0.00000000E+00  0.00000000E+00
