Ca2 Ti4 S6 O24                          
   1.00000000000000     
     7.7817417193905092    0.0806738702651481    4.4521180866158128
     2.6608218924741629    7.3039160582841482    4.4011388603655632
     0.1616144361088638    0.0219247407886083    9.0591045899550746
   Ca   Ti   S    O 
     2     4     6    24
Direct
  0.3841962177321960  0.7502666575000134  0.1216520311998082
  0.7344390267914349  0.1055128691030234  0.3718530798336914
  0.6416772611515640  0.6335424364387663  0.6574211866588797
  0.1462381978714475  0.1685046813146798  0.1785761959710257
  0.8626646637043081  0.8607608415256536  0.8515870054352277
  0.3292867856121546  0.3395437381190831  0.3391806174531524
  0.9404617199631389  0.2491602964254653  0.5218838031643571
  0.4544606900778589  0.0326558161492514  0.7572834179313830
  0.5606381180199662  0.9280533837014175  0.2556555830151268
  0.7492053679426931  0.4470761980395395  0.0368502551370113
  0.2452999096131094  0.5712046828935513  0.9506915668172056
  0.0396697772016310  0.7536381437062829  0.4640571078597162
  0.4165816999918022  0.5335006974567307  0.7997324538201696
  0.9076032848475819  0.2888543600267113  0.0816196374266625
  0.8495475061283884  0.4381435676237686  0.5200164938348522
  0.0806070663546024  0.9103525766620990  0.2913130516446927
  0.5420900555287247  0.7947383197917546  0.4362412144620365
  0.3093991358297714  0.0875881908794867  0.9153445296437610
  0.7395875521577935  0.8660221958425893  0.1237937019637556
  0.1867785004797611  0.5853575833844786  0.4263650338154008
  0.1154976945671535  0.7539529312957924  0.8942741544135870
  0.4172809677129408  0.1564171792873665  0.5865413933405037
  0.9129616705055454  0.1194122548310190  0.7034957988179258
  0.5818496178145836  0.4233211097388434  0.2087605110234918
  0.8822776640097985  0.2190790000463068  0.4145052627672783
  0.4686431969382738  0.8429932852218727  0.7978896981815922
  0.4124980425515830  0.9589822730430058  0.2024402787473818
  0.7281272132484276  0.4452239080881739  0.8900395203540015
  0.1619176225373380  0.4326160598168372  0.0286659740390363
  0.8552588456245189  0.7694810284170686  0.4930430165422450
  0.1430067112100630  0.2159986269496699  0.4133680279179259
  0.6363538059137142  0.0247371556136500  0.7269552512575359
  0.5412574964765895  0.1047211082597457  0.2550652446588444
  0.7490976350285905  0.6268430654411503  0.0005153872911379
  0.2874808383921703  0.5639123212171668  0.0959737851237321
  0.0387584404688894  0.7746314561480716  0.6120487284358802
 
  0.00000000E+00  0.00000000E+00  0.00000000E+00
  0.00000000E+00  0.00000000E+00  0.00000000E+00
  0.00000000E+00  0.00000000E+00  0.00000000E+00
  0.00000000E+00  0.00000000E+00  0.00000000E+00
  0.00000000E+00  0.00000000E+00  0.00000000E+00
  0.00000000E+00  0.00000000E+00  0.00000000E+00
  0.00000000E+00  0.00000000E+00  0.00000000E+00
  0.00000000E+00  0.00000000E+00  0.00000000E+00
  0.00000000E+00  0.00000000E+00  0.00000000E+00
  0.00000000E+00  0.00000000E+00  0.00000000E+00
  0.00000000E+00  0.00000000E+00  0.00000000E+00
  0.00000000E+00  0.00000000E+00  0.00000000E+00
  0.00000000E+00  0.00000000E+00  0.00000000E+00
  0.00000000E+00  0.00000000E+00  0.00000000E+00
  0.00000000E+00  0.00000000E+00  0.00000000E+00
  0.00000000E+00  0.00000000E+00  0.00000000E+00
  0.00000000E+00  0.00000000E+00  0.00000000E+00
  0.00000000E+00  0.00000000E+00  0.00000000E+00
  0.00000000E+00  0.00000000E+00  0.00000000E+00
  0.00000000E+00  0.00000000E+00  0.00000000E+00
  0.00000000E+00  0.00000000E+00  0.00000000E+00
  0.00000000E+00  0.00000000E+00  0.00000000E+00
  0.00000000E+00  0.00000000E+00  0.00000000E+00
  0.00000000E+00  0.00000000E+00  0.00000000E+00
  0.00000000E+00  0.00000000E+00  0.00000000E+00
  0.00000000E+00  0.00000000E+00  0.00000000E+00
  0.00000000E+00  0.00000000E+00  0.00000000E+00
  0.00000000E+00  0.00000000E+00  0.00000000E+00
  0.00000000E+00  0.00000000E+00  0.00000000E+00
  0.00000000E+00  0.00000000E+00  0.00000000E+00
  0.00000000E+00  0.00000000E+00  0.00000000E+00
  0.00000000E+00  0.00000000E+00  0.00000000E+00
  0.00000000E+00  0.00000000E+00  0.00000000E+00
  0.00000000E+00  0.00000000E+00  0.00000000E+00
  0.00000000E+00  0.00000000E+00  0.00000000E+00
  0.00000000E+00  0.00000000E+00  0.00000000E+00
