Ca2 Ti4 S6 O24
1.0
7.511648 0.000000 4.232596
2.473329 7.092778 4.232596
0.000000 0.000000 8.622049
Ca Ti S O
2 4 6 24
direct
0.394100 0.746200 0.118200 Ca2+
0.746200 0.118200 0.394100 Ca2+
0.643600 0.643600 0.643600 Ti2+
0.143600 0.143600 0.143600 Ti2+
0.850200 0.850200 0.850200 Ti2+
0.350200 0.350200 0.350200 Ti2+
0.949900 0.246300 0.544200 S6+
0.449900 0.044200 0.746300 S6+
0.544200 0.949900 0.246300 S6+
0.746300 0.449900 0.044200 S6+
0.246300 0.544200 0.949900 S6+
0.044200 0.746300 0.449900 S6+
0.418900 0.561200 0.769100 O2-
0.918900 0.269100 0.061200 O2-
0.769100 0.418900 0.561200 O2-
0.061200 0.918900 0.269100 O2-
0.561200 0.769100 0.418900 O2-
0.269100 0.061200 0.918900 O2-
0.729100 0.930100 0.080100 O2-
0.229100 0.580100 0.430100 O2-
0.080100 0.729100 0.930100 O2-
0.430100 0.229100 0.580100 O2-
0.930100 0.080100 0.729100 O2-
0.580100 0.430100 0.229100 O2-
0.984900 0.210200 0.371300 O2-
0.484900 0.871300 0.710200 O2-
0.371300 0.984900 0.210200 O2-
0.710200 0.484900 0.871300 O2-
0.210200 0.371300 0.984900 O2-
0.871300 0.710200 0.484900 O2-
0.119100 0.291900 0.506100 O2-
0.619100 0.006100 0.791900 O2-
0.506100 0.119100 0.291900 O2-
0.791900 0.619100 0.006100 O2-
0.291900 0.506100 0.119100 O2-
0.006100 0.791900 0.619100 O2-
