Ca8 P8 O28                              
   1.00000000000000     
    12.6131635653835463   -0.0000000517325710   -0.0742773986952389
    -0.0000000333582549    8.4994972402494913    0.0000000110446959
    -0.0034252002192054    0.0000000065383838    5.3003227137504290
   Ca   P    O 
     8     8    28
Direct
  0.7342401706328872  0.3138379585962241  0.7578994082352750
  0.2342401742492228  0.1861620382997344  0.2578994023612537
  0.2657594174706261  0.6861624113353599  0.2421002303085444
  0.7657594195053221  0.8138375875857733  0.7421002469879170
  0.9097338138399351  0.1130160725495628  0.2621198744173228
  0.4097338137961515  0.3869839327051778  0.7621198607220023
  0.0902658632245661  0.8869836328264995  0.7378793705121183
  0.5902658632338031  0.6130163654258141  0.2378793832963382
  0.4726884088734167  0.7332357292301737  0.7656485402305009
  0.9726884052212625  0.7667642728264852  0.2656485268157169
  0.5273120723080638  0.2667646469030061  0.2343512983675780
  0.0273120759156527  0.2332353530323772  0.7343513127337360
  0.3197379998516681  0.9862375150981109  0.7294983740861625
  0.8197379944406080  0.5137624823873495  0.2294983906946158
  0.6802617803950923  0.0137619365210355  0.2705018296113764
  0.1802617844596810  0.4862380658682071  0.7705018235688073
  0.4355812266950778  0.9119962235309771  0.7651938837602472
  0.9355812187699968  0.5880037788828218  0.2651939161320627
  0.5644192559965546  0.0880034856870680  0.2348062297150548
  0.0644192635544982  0.4119965133653238  0.7348061963690782
  0.4432343427126924  0.6569948052424834  0.5154987317952830
  0.9432343327824171  0.8430051900772924  0.0154987156727060
  0.5567656384327719  0.3430053463789164  0.4845015441764815
  0.0567656493990896  0.1569946540681855  0.9845015603231673
  0.4168575754112993  0.6451014522719234  0.9797826148219428
  0.9168575818026810  0.8548985500458741  0.4797826162104712
  0.5831424103383185  0.3548997505544875  0.0202170658546308
  0.0831424045710207  0.1451002483584176  0.5202170639186647
  0.5895640844012391  0.7359421894626550  0.8215497238939093
  0.0895640851777983  0.7640578164863854  0.3215496656705099
  0.4104365853011060  0.2640573000326967  0.1784513099371026
  0.9104365851478420  0.2359426921788952  0.6784513673731993
  0.2597047132070571  0.9628741298642609  0.9751888302189826
  0.7597047032398550  0.5371258722576329  0.4751888339218553
  0.7402948704154326  0.0371259263814423  0.0248112149586035
  0.2402948790092267  0.4628740744637625  0.5248112227421444
  0.2633474420897812  0.9024966816123907  0.5152882275176793
  0.7633474405860525  0.5975033197047424  0.0152882461969241
  0.7366524753321926  0.0975036442483201  0.4847107661657333
  0.2366524770679561  0.4024963524106440  0.9847107519651601
  0.3370086502511072  0.1552835862867568  0.6589872188754029
  0.8370086463398536  0.3447164108120475  0.1589872576311038
  0.6629912016960944  0.8447157867310295  0.3410136952072236
  0.1629912028530214  0.6552842174116762  0.8410136560254244
 
  0.00000000E+00  0.00000000E+00  0.00000000E+00
  0.00000000E+00  0.00000000E+00  0.00000000E+00
  0.00000000E+00  0.00000000E+00  0.00000000E+00
  0.00000000E+00  0.00000000E+00  0.00000000E+00
  0.00000000E+00  0.00000000E+00  0.00000000E+00
  0.00000000E+00  0.00000000E+00  0.00000000E+00
  0.00000000E+00  0.00000000E+00  0.00000000E+00
  0.00000000E+00  0.00000000E+00  0.00000000E+00
  0.00000000E+00  0.00000000E+00  0.00000000E+00
  0.00000000E+00  0.00000000E+00  0.00000000E+00
  0.00000000E+00  0.00000000E+00  0.00000000E+00
  0.00000000E+00  0.00000000E+00  0.00000000E+00
  0.00000000E+00  0.00000000E+00  0.00000000E+00
  0.00000000E+00  0.00000000E+00  0.00000000E+00
  0.00000000E+00  0.00000000E+00  0.00000000E+00
  0.00000000E+00  0.00000000E+00  0.00000000E+00
  0.00000000E+00  0.00000000E+00  0.00000000E+00
  0.00000000E+00  0.00000000E+00  0.00000000E+00
  0.00000000E+00  0.00000000E+00  0.00000000E+00
  0.00000000E+00  0.00000000E+00  0.00000000E+00
  0.00000000E+00  0.00000000E+00  0.00000000E+00
  0.00000000E+00  0.00000000E+00  0.00000000E+00
  0.00000000E+00  0.00000000E+00  0.00000000E+00
  0.00000000E+00  0.00000000E+00  0.00000000E+00
  0.00000000E+00  0.00000000E+00  0.00000000E+00
  0.00000000E+00  0.00000000E+00  0.00000000E+00
  0.00000000E+00  0.00000000E+00  0.00000000E+00
  0.00000000E+00  0.00000000E+00  0.00000000E+00
  0.00000000E+00  0.00000000E+00  0.00000000E+00
  0.00000000E+00  0.00000000E+00  0.00000000E+00
  0.00000000E+00  0.00000000E+00  0.00000000E+00
  0.00000000E+00  0.00000000E+00  0.00000000E+00
  0.00000000E+00  0.00000000E+00  0.00000000E+00
  0.00000000E+00  0.00000000E+00  0.00000000E+00
  0.00000000E+00  0.00000000E+00  0.00000000E+00
  0.00000000E+00  0.00000000E+00  0.00000000E+00
  0.00000000E+00  0.00000000E+00  0.00000000E+00
  0.00000000E+00  0.00000000E+00  0.00000000E+00
  0.00000000E+00  0.00000000E+00  0.00000000E+00
  0.00000000E+00  0.00000000E+00  0.00000000E+00
  0.00000000E+00  0.00000000E+00  0.00000000E+00
  0.00000000E+00  0.00000000E+00  0.00000000E+00
  0.00000000E+00  0.00000000E+00  0.00000000E+00
  0.00000000E+00  0.00000000E+00  0.00000000E+00
