Ca4 Ti4 O12                             
   1.00000000000000     
     5.4848625588356894   -0.0000000281072322   -0.0000002311418452
    -0.0000000409296844    7.6719829301218327   -0.0000001041116232
    -0.0000002279991593   -0.0000000736255406    5.3921720145749612
   Ca   Ti   O 
     4     4    12
Direct
  0.4580508394961890  0.2500000102673158  0.4927368859213445
  0.9580509055967928  0.2500000227197377  0.0072631185340151
  0.5419588408089989  0.7500000256623994  0.5072703659328468
  0.0419588265647815  0.7500000106897279  0.9927296620226002
  0.5000041463503817 -0.0000073425577230 -0.0000106706802306
  0.0000042914769435  0.5000072817486524  0.5000104336241120
  0.5000040696559657  0.5000072738898004 -0.0000104637444234
  0.0000042672019741 -0.0000073636275849  0.5000106449981737
  0.5200977307917711  0.2499999728561030  0.9224731801636383
  0.0200975576694783  0.2500000329790886  0.5775267749287163
  0.4799255145645905  0.7500000496230488  0.0775312277814910
  0.9799254723769698  0.7499999763810071  0.4224688783624141
  0.7082713642254699  0.4595138770139510  0.2926986218124156
  0.2082714235826012  0.0404861497048409  0.2073013624535185
  0.2917080615498018  0.9595154408467834  0.7073026627321635
  0.7917080386133891  0.5404846072084329  0.7926973497409131
  0.2917080339636914  0.5404845889361249  0.7073025701246425
  0.7917079585484319  0.9595154093514067  0.7926974443851692
  0.7082712970773561  0.0404861283187639  0.2926985248691200
  0.2082713598844284  0.4595138479881160  0.2073014260373453
 
  0.00000000E+00  0.00000000E+00  0.00000000E+00
  0.00000000E+00  0.00000000E+00  0.00000000E+00
  0.00000000E+00  0.00000000E+00  0.00000000E+00
  0.00000000E+00  0.00000000E+00  0.00000000E+00
  0.00000000E+00  0.00000000E+00  0.00000000E+00
  0.00000000E+00  0.00000000E+00  0.00000000E+00
  0.00000000E+00  0.00000000E+00  0.00000000E+00
  0.00000000E+00  0.00000000E+00  0.00000000E+00
  0.00000000E+00  0.00000000E+00  0.00000000E+00
  0.00000000E+00  0.00000000E+00  0.00000000E+00
  0.00000000E+00  0.00000000E+00  0.00000000E+00
  0.00000000E+00  0.00000000E+00  0.00000000E+00
  0.00000000E+00  0.00000000E+00  0.00000000E+00
  0.00000000E+00  0.00000000E+00  0.00000000E+00
  0.00000000E+00  0.00000000E+00  0.00000000E+00
  0.00000000E+00  0.00000000E+00  0.00000000E+00
  0.00000000E+00  0.00000000E+00  0.00000000E+00
  0.00000000E+00  0.00000000E+00  0.00000000E+00
  0.00000000E+00  0.00000000E+00  0.00000000E+00
  0.00000000E+00  0.00000000E+00  0.00000000E+00
