Ca6 Co4 O12                             
   1.00000000000000     
     4.5525069001609086    2.6282245104246940    3.4780810119462640
    -4.5812618565941117    2.6694921857628695    3.4844196783491257
     0.0212550509226947   -5.3019627492456438    3.4845593709383262
   Ca   Co   O 
     6     4    12
Direct
  0.6193772202513614  0.8817768193322936  0.2487996872984706
  0.8806047380053910  0.2511829332312031  0.6182641767290065
  0.2500120859894128  0.6186786973221987  0.8813149540385830
  0.1194029524342269  0.7488157839475433  0.3817247810696708
  0.7499884359043024  0.3813297657762628  0.1186792311717345
  0.3806139879008329  0.1182335215110639  0.7512033575160570
  0.2499919463143326  0.2531412211453162  0.2468690538550561
  0.7500133488545578  0.7468611611558660  0.7531294541698470
  0.4999938128576190  0.5000000801337424  0.5000108639922999
  0.0000062901094369  0.9999921449095326  0.0000046463249526
  0.5360321470203522  0.2056355262399404  0.4031074861388960
  0.2057207405589986  0.4032011860177615  0.5378826797676617
  0.3994406259969397  0.5368659339910158  0.2026193584775071
  0.0360428446265097  0.9030913704745414  0.7055986531702735
  0.8994901694733817  0.7026186285557928  0.0368526734541018
  0.7057105028531755  0.0378235990895196  0.9032206613298719
  0.4639767737951446  0.7943853921209166  0.5968849314439499
  0.7942979955909211  0.5967847772450499  0.4621415728577556
  0.6005505163605263  0.4631311756122797  0.7973696404300720
  0.9639394874119129  0.0969128431671688  0.2943794433721738
  0.1005174353283003  0.2973924142377447  0.9631559497968357
  0.2942759423623567  0.9621450247832461  0.0967867435952087
 
  0.00000000E+00  0.00000000E+00  0.00000000E+00
  0.00000000E+00  0.00000000E+00  0.00000000E+00
  0.00000000E+00  0.00000000E+00  0.00000000E+00
  0.00000000E+00  0.00000000E+00  0.00000000E+00
  0.00000000E+00  0.00000000E+00  0.00000000E+00
  0.00000000E+00  0.00000000E+00  0.00000000E+00
  0.00000000E+00  0.00000000E+00  0.00000000E+00
  0.00000000E+00  0.00000000E+00  0.00000000E+00
  0.00000000E+00  0.00000000E+00  0.00000000E+00
  0.00000000E+00  0.00000000E+00  0.00000000E+00
  0.00000000E+00  0.00000000E+00  0.00000000E+00
  0.00000000E+00  0.00000000E+00  0.00000000E+00
  0.00000000E+00  0.00000000E+00  0.00000000E+00
  0.00000000E+00  0.00000000E+00  0.00000000E+00
  0.00000000E+00  0.00000000E+00  0.00000000E+00
  0.00000000E+00  0.00000000E+00  0.00000000E+00
  0.00000000E+00  0.00000000E+00  0.00000000E+00
  0.00000000E+00  0.00000000E+00  0.00000000E+00
  0.00000000E+00  0.00000000E+00  0.00000000E+00
  0.00000000E+00  0.00000000E+00  0.00000000E+00
  0.00000000E+00  0.00000000E+00  0.00000000E+00
  0.00000000E+00  0.00000000E+00  0.00000000E+00
