Ca1 Co4 S6 O24                          
   1.00000000000000     
     7.4528639999999999    0.2605870000000000    4.7181860000000002
     2.7361640000000000    6.9359599999999997    4.7481419999999996
     0.3724420000000000    0.2363060000000000    8.8013340000000007
   Ca   Co   S    O 
     1     4     6    24
Direct
  0.4476195623168609  0.5562464471352042  0.4945462579263672
  0.6455218693119564  0.6485085178394162  0.6492332313744742
  0.1455583187575084  0.1546758870391136  0.1472454731351956
  0.8438278921878815  0.8485296391460494  0.8510009644342448
  0.3433797020496371  0.3467196212616928  0.3625054340705984
  0.9556322598582220  0.2498687874599276  0.5331312992633779
  0.4523880213868522  0.0450556235241804  0.7530763106294653
  0.5421139402064231  0.9608458686663355  0.2456983990671089
  0.7349552558454852  0.4684933867735879  0.0548131538340537
  0.2454500365420116  0.5387895997433544  0.9533134944025222
  0.0328979627965602  0.7563503224409069  0.4551833845987439
  0.3804458062855590  0.6272863817165955  0.7551632182143785
  0.9403196688836405  0.3333435379984464  0.0221619381148230
  0.7531864925349236  0.3808079218039929  0.6166392371880255
  0.0024816272021631  0.9633566464219738  0.3303589896500250
  0.6217636219057847  0.7556422287645579  0.3783445564413295
  0.3182966218226790  0.0170659237806297  0.9604899166770040
  0.6760613686746643  0.9904977564225834  0.0400022561821989
  0.2348748393157924  0.6294526629617544  0.3610763970287746
  0.0415590494213685  0.6804946364341172  0.9737389432662860
  0.3740843016765300  0.2521799583849390  0.6245684121306240
  0.9829165457714686  0.0420833551209491  0.6514104460079309
  0.6024442257311455  0.3853230265513189  0.2573066462776635
  0.9822466723243156  0.2965138020979896  0.3305141580781977
  0.4699580227220267  0.9087473264183842  0.6971255936846076
  0.3492947772223336  0.9757864350990595  0.2789558030893097
  0.6779775951910761  0.5053408666171476  0.9077797095793627
  0.2765403445565101  0.3588199487374484  0.9487648900166191
  0.8875012607762099  0.7063588811934761  0.4796905767905575
  0.1001618462189275  0.2905803113880056  0.5243084832353783
  0.6489506970700539  0.0133738472373045  0.7256146798710105
  0.5182244201321281  0.1012768103806592  0.3012765408863158
  0.7054096675060439  0.6551528683180942  0.0477707839877938
  0.2906218001061561  0.4984629617248865  0.1089994020140446
  0.0301119229655747  0.7074260960251879  0.6479162041656479
 
             NaN             NaN             NaN
             NaN             NaN             NaN
             NaN             NaN             NaN
             NaN             NaN             NaN
             NaN             NaN             NaN
             NaN             NaN             NaN
             NaN             NaN             NaN
             NaN             NaN             NaN
             NaN             NaN             NaN
             NaN             NaN             NaN
             NaN             NaN             NaN
             NaN             NaN             NaN
             NaN             NaN             NaN
             NaN             NaN             NaN
             NaN             NaN             NaN
             NaN             NaN             NaN
             NaN             NaN             NaN
             NaN             NaN             NaN
             NaN             NaN             NaN
             NaN             NaN             NaN
             NaN             NaN             NaN
             NaN             NaN             NaN
             NaN             NaN             NaN
             NaN             NaN             NaN
             NaN             NaN             NaN
             NaN             NaN             NaN
             NaN             NaN             NaN
             NaN             NaN             NaN
             NaN             NaN             NaN
             NaN             NaN             NaN
             NaN             NaN             NaN
             NaN             NaN             NaN
             NaN             NaN             NaN
             NaN             NaN             NaN
             NaN             NaN             NaN
