Ca1 Co4 S6 O24                          
   1.00000000000000     
     7.4528639999999999    0.2605870000000000    4.7181860000000002
     2.7361640000000000    6.9359599999999997    4.7481419999999996
     0.3724420000000000    0.2363060000000000    8.8013340000000007
   Ca   Co   S    O 
     1     4     6    24
Direct
  0.4772217049006730  0.5291508733855007  0.4938359094348158
  0.6361197406366425  0.6535711538698740  0.6483323107521377
  0.1483486320033535  0.1472446743273891  0.1525351993945876
  0.8469600902638935  0.8463462763439471  0.8434454931531127
  0.3473592986276651  0.3488621975047784  0.3486417380377783
  0.9470773410847385  0.2432709111630641  0.5451905588125652
  0.4654105423013008  0.0423240192237269  0.7477114822337017
  0.5447597974845603  0.9525257127728873  0.2388454956705046
  0.7454015835696112  0.4670431799762459  0.0404373955740686
  0.2332342101819321  0.5500839947333563  0.9524017331496130
  0.0352184091281220  0.7516312508529964  0.4663197693716942
  0.3670996699200596  0.6334127989997314  0.7509829549755366
  0.9446043566964795  0.3270672464643882  0.0140121649788298
  0.7441488518211861  0.3779885570272146  0.6221825717962345
  0.0087055359030166  0.9537199674412026  0.3274292083778910
  0.6347858031291589  0.7522953140743311  0.3699365545854115
  0.3389136125659463  0.0171389651158956  0.9547326087377725
  0.6719902646629530  0.9843067963580763  0.0293438139361453
  0.2343399417503535  0.6155881981082487  0.3841194655064986
  0.0273324691389965  0.6907174345656840  0.9812760122596715
  0.3882205164955650  0.2466888671538010  0.6162204373499841
  0.9755951687401322  0.0366073340605884  0.6808177811824067
  0.6093205195798574  0.3981305394758857  0.2431897259585653
  0.9683755835993900  0.2742353760072278  0.3510948837569707
  0.4725316695858984  0.9074136400415205  0.6978981643692784
  0.3533313593587425  0.9549863772130424  0.2852110048189828
  0.6822240681820524  0.4934735943831678  0.9049951602675192
  0.2639637918866668  0.3638575004831808  0.9616546592932881
  0.8871289567507844  0.6960983533561467  0.5073738241420306
  0.0928470283111444  0.2915569499464072  0.5213757417596352
  0.6662658526530950  0.0154563929893538  0.7066509994959151
  0.5173057822471330  0.1032503468319212  0.2831315489596224
  0.7175523437884279  0.6581955465478690  0.0221301189345225
  0.2825664204046258  0.5179221655744736  0.1015821168056686
  0.0356742662852865  0.7192517432283900  0.6528013912474196
 
             NaN             NaN             NaN
             NaN             NaN             NaN
             NaN             NaN             NaN
             NaN             NaN             NaN
             NaN             NaN             NaN
             NaN             NaN             NaN
             NaN             NaN             NaN
             NaN             NaN             NaN
             NaN             NaN             NaN
             NaN             NaN             NaN
             NaN             NaN             NaN
             NaN             NaN             NaN
             NaN             NaN             NaN
             NaN             NaN             NaN
             NaN             NaN             NaN
             NaN             NaN             NaN
             NaN             NaN             NaN
             NaN             NaN             NaN
             NaN             NaN             NaN
             NaN             NaN             NaN
             NaN             NaN             NaN
             NaN             NaN             NaN
             NaN             NaN             NaN
             NaN             NaN             NaN
             NaN             NaN             NaN
             NaN             NaN             NaN
             NaN             NaN             NaN
             NaN             NaN             NaN
             NaN             NaN             NaN
             NaN             NaN             NaN
             NaN             NaN             NaN
             NaN             NaN             NaN
             NaN             NaN             NaN
             NaN             NaN             NaN
             NaN             NaN             NaN
