Ca1 Mn4 S6 O24                          
   1.00000000000000     
     7.8182910000000003    0.0363480000000000    4.8695209999999998
     2.7488470000000000    7.0390569999999997    4.7281060000000004
     0.5106240000000000    0.0789630000000000    8.9125289999999993
   Ca   Mn   S    O 
     1     4     6    24
Direct
  0.2651901210115419  0.8266603776539988  0.5904165324126381
  0.6620085410391295  0.6415342137215660  0.6467915567084542
  0.1395005781675648  0.1554659332166811  0.1388582116490841
  0.8187341718122497  0.8493325777593632  0.8452580498512724
  0.3609398569148968  0.3522928815985673  0.3557190603306142
  0.9691007635256796  0.2368969450368386  0.5249424787555586
  0.4252493802382503  0.0352500609668308  0.7583836088645335
  0.5555635874629671  0.9682660903961535  0.2289276318580188
  0.7429311608320068  0.4647725774788214  0.0563366072881656
  0.2598013705225157  0.5131717584746952  0.9582107878070159
  0.0438529913696990  0.7546909512407477  0.4495255300372271
  0.4265746637483890  0.5558427139369437  0.7774053304692335
  0.9334651743465183  0.3285528301519675  0.0190338259340507
  0.8043645969055745  0.3751216624734832  0.6078008101472993
  0.0223252671833635  0.9587329324784567  0.3339707924638510
  0.5994868066532255  0.7829442946489359  0.3836169597639808
  0.2914005721871509  0.0117892253427280  0.9666066837085938
  0.6994011394972860  0.9690598762649204  0.0318776355561873
  0.2343651222060010  0.6335152218141161  0.3691111140112319
  0.0947825474629309  0.6774459223464978  0.9238999825313555
  0.3589672441712358  0.2300581806062231  0.6341774960997620
  0.9545694196912005  0.0396323612646928  0.6515216675992487
  0.6103068007360346  0.3923456057827976  0.2521514045070339
  0.9848873788033887  0.2822205040179158  0.3301586026507236
  0.4311135293306035  0.8971494160991600  0.7104358628001071
  0.3710693749179984  0.9945105950433899  0.2506449656548576
  0.6816426028097932  0.5220788605252616  0.9085274364425721
  0.2644718531954539  0.3401991144148059  0.9650812424652369
  0.9035745475117786  0.7131716099044906  0.4647795948784396
  0.1437774524291886  0.2174575698791572  0.5121857213723572
  0.6136545903614693  0.9896421927435859  0.7372007450726925
  0.5441383610615661  0.1204300429643540  0.2565439155446564
  0.7380223444796360  0.6410840747650615  0.0489464475038894
  0.2689481165183717  0.4827945652813118  0.1287330535787653
  0.0142676514483625  0.7203096096095233  0.6496592082309104
 
             NaN             NaN             NaN
             NaN             NaN             NaN
             NaN             NaN             NaN
             NaN             NaN             NaN
             NaN             NaN             NaN
             NaN             NaN             NaN
             NaN             NaN             NaN
             NaN             NaN             NaN
             NaN             NaN             NaN
             NaN             NaN             NaN
             NaN             NaN             NaN
             NaN             NaN             NaN
             NaN             NaN             NaN
             NaN             NaN             NaN
             NaN             NaN             NaN
             NaN             NaN             NaN
             NaN             NaN             NaN
             NaN             NaN             NaN
             NaN             NaN             NaN
             NaN             NaN             NaN
             NaN             NaN             NaN
             NaN             NaN             NaN
             NaN             NaN             NaN
             NaN             NaN             NaN
             NaN             NaN             NaN
             NaN             NaN             NaN
             NaN             NaN             NaN
             NaN             NaN             NaN
             NaN             NaN             NaN
             NaN             NaN             NaN
             NaN             NaN             NaN
             NaN             NaN             NaN
             NaN             NaN             NaN
             NaN             NaN             NaN
             NaN             NaN             NaN
