Ca1 Mn4 S6 O24
1.0
7.818291 0.036348 4.869521
2.748847 7.039057 4.728106
0.510624 0.078963 8.912529
Ca Mn S O
1 4 6 24
direct
0.286795 0.819689 0.601189 Ca
0.660023 0.643015 0.646435 Mn
0.143437 0.154197 0.140993 Mn
0.822115 0.848243 0.844777 Mn
0.360442 0.356564 0.350367 Mn
0.959946 0.243007 0.527190 S
0.431283 0.040121 0.754970 S
0.546948 0.964783 0.234825 S
0.747811 0.460019 0.051831 S
0.253386 0.519895 0.957801 S
0.045368 0.757294 0.450507 S
0.413219 0.570796 0.774623 O
0.938087 0.325191 0.016521 O
0.792314 0.383860 0.602500 O
0.024701 0.960222 0.326859 O
0.601373 0.780692 0.383515 O
0.302527 0.014074 0.963686 O
0.683534 0.970838 0.034516 O
0.232837 0.632519 0.369362 O
0.083215 0.679623 0.936850 O
0.361072 0.233162 0.630726 O
0.946447 0.047471 0.658729 O
0.615003 0.388977 0.249113 O
0.982766 0.281812 0.331981 O
0.435482 0.899806 0.710953 O
0.360149 0.986551 0.266999 O
0.686927 0.510700 0.906678 O
0.260783 0.345831 0.963739 O
0.899751 0.716700 0.474349 O
0.128357 0.231217 0.518645 O
0.620696 -0.002607 0.726263 O
0.534075 0.118721 0.261388 O
0.740037 0.639540 0.040304 O
0.269652 0.485204 0.125687 O
0.020840 0.727923 0.645895 O
