Ca2 Co2 P4 O14                          
   1.00000000000000     
     6.4261189969940888   -0.0220205808685819    0.7463426496358863
    -0.0424751545607544    5.9248751947132892    2.6051481883803693
     0.0074338548229856    0.0049706953086036    6.5195925765176943
   Ca   Co   P    O 
     2     2     4    14
Direct
  0.8737205161712601  0.2032001407169789  0.2614428749465090
  0.1262922378067498  0.7968027056375109  0.7386063011849795
  0.6472878217956392  0.7777134773008332  0.0986253137570982
  0.3527280760888748  0.2221771530800777  0.9014558849524449
  0.3739707558317531  0.3238799497877469  0.3635402374660072
  0.6260479429472912  0.6761332355980881  0.6364243887324007
  0.8615817159298037  0.2565665956780285  0.7667726740671612
  0.1383885152830710  0.7434344523520164  0.2332469605242043
  0.9431408862819337  0.1372916724437752  0.6207806380479949
  0.0568583044552787  0.8626992180684823  0.3792614693914754
  0.6825647772138203  0.1322267484035956  0.9486549596538977
  0.3173279631178171  0.8678570720177722  0.0513004691205712
  0.2673910634799195  0.2539114644444148  0.2074722588544580
  0.7326119364917024  0.7461174765058093  0.7924866587692529
  0.6196733924168336  0.8504250198321880  0.3978905617014297
  0.3803850648017637  0.1495444756329823  0.6020532267930854
  0.4155675255659577  0.5638571497661489  0.7476428298701115
  0.5844746431913701  0.4361725468378212  0.2522968052573039
  0.0287063727906112  0.3140561544857729  0.8827874817506098
  0.9712333237429854  0.6858925371037837  0.1172924578465189
  0.2305354016015818  0.5179261271789961  0.3997512594975580
  0.7695117629939739  0.4821146271271701  0.6002142878149270
 
  0.00000000E+00  0.00000000E+00  0.00000000E+00
  0.00000000E+00  0.00000000E+00  0.00000000E+00
  0.00000000E+00  0.00000000E+00  0.00000000E+00
  0.00000000E+00  0.00000000E+00  0.00000000E+00
  0.00000000E+00  0.00000000E+00  0.00000000E+00
  0.00000000E+00  0.00000000E+00  0.00000000E+00
  0.00000000E+00  0.00000000E+00  0.00000000E+00
  0.00000000E+00  0.00000000E+00  0.00000000E+00
  0.00000000E+00  0.00000000E+00  0.00000000E+00
  0.00000000E+00  0.00000000E+00  0.00000000E+00
  0.00000000E+00  0.00000000E+00  0.00000000E+00
  0.00000000E+00  0.00000000E+00  0.00000000E+00
  0.00000000E+00  0.00000000E+00  0.00000000E+00
  0.00000000E+00  0.00000000E+00  0.00000000E+00
  0.00000000E+00  0.00000000E+00  0.00000000E+00
  0.00000000E+00  0.00000000E+00  0.00000000E+00
  0.00000000E+00  0.00000000E+00  0.00000000E+00
  0.00000000E+00  0.00000000E+00  0.00000000E+00
  0.00000000E+00  0.00000000E+00  0.00000000E+00
  0.00000000E+00  0.00000000E+00  0.00000000E+00
  0.00000000E+00  0.00000000E+00  0.00000000E+00
  0.00000000E+00  0.00000000E+00  0.00000000E+00
