Ca2 Co2 P4 O14
1.0
6.502403 0.000000 0.767999
-0.030996 5.997009 2.619191
0.000000 0.000000 6.574300
Ca Co P O
2 2 4 14
direct
0.878750 0.202120 0.264780 Ca2+
0.121250 0.797880 0.735220 Ca2+
0.647480 0.770870 0.103550 Co2+
0.352520 0.229130 0.896450 Co2+
0.343930 0.321320 0.362990 P5+
0.656070 0.678680 0.637010 P5+
0.858100 0.259590 0.769170 P5+
0.141900 0.740410 0.230830 P5+
0.941000 0.140800 0.624100 O2-
0.059000 0.859200 0.375900 O2-
0.685700 0.133500 0.951300 O2-
0.314300 0.866500 0.048700 O2-
0.262800 0.254200 0.210700 O2-
0.737200 0.745800 0.789300 O2-
0.624000 0.849500 0.399400 O2-
0.376000 0.150500 0.600600 O2-
0.415700 0.577300 0.746600 O2-
0.584300 0.422700 0.253400 O2-
0.022100 0.324100 0.879600 O2-
0.977900 0.675900 0.120400 O2-
0.239700 0.521000 0.396700 O2-
0.760300 0.479000 0.603300 O2-
