Ca2 V4 P4 O20                           
   1.00000000000000     
    -5.8118615831966620   -0.0005980210566934   -3.6046172764823052
     5.8133992013465452   -0.0006750123821719   -3.6024470391377101
    -0.0007120040935827   -7.9061494394059766    3.6022981760675132
   Ca   V    P    O 
     2     4     4    20
Direct
  0.7486504368280038  0.7481024792815647  0.9995875763679677
  0.9981413546708298  0.4985669061167529  0.4996039907221336
  0.3970496771743526  0.1228863981533381  0.7385887364196374
  0.3848089690507527  0.6583821122253627  0.2615294998381497
  0.3728316509949675  0.1470512215388011  0.2385715145878847
  0.9083304876737121  0.1347991161140991  0.7614679940126748
  0.7967893585704328  0.2958463096636766  0.0850047766072567
  0.2112066216964344  0.7119642736058155  0.9151876226452182
  0.5459111116639226  0.5468711446669099  0.5850139038349130
  0.9618680345130972  0.9610039261735879  0.4151615416675596
  0.6503581222492224  0.3597527476959743  0.9681393102435401
  0.3919510810394775  0.6822800885074924  0.0318508247292878
  0.6098294131927722  0.4004475366114962  0.4681716477059661
  0.9321985988085212  0.1417967329124258  0.5317912884114623
  0.4462230840880262  0.4194767352905915  0.6988328428273082
  0.7208585114189293  0.7471845671032901  0.3015304995708159
  0.6692931273645875  0.1962047862998589  0.1988151405916845
  0.9973913189042548  0.4709718223540774  0.8014911176899128
  0.1736570575746522  0.1717960968305166  0.8328413846140942
  0.3384100580838980  0.3406512853291590  0.1667177746371659
  0.4217707238954302  0.9236674838092284  0.3328922264902654
  0.5907765369813879  0.0887361147168950  0.6667176804484647
  0.3069719148297176  0.8297767263572775  0.7963680590043802
  0.0334081749742480  0.5103636960189404  0.2038054789470532
  0.0794924145818638  0.0566381890576444  0.2962222786525240
  0.7603964825491932  0.7834878250237408  0.7037553444493567
  0.1093058550570901  0.8930735622041799  0.5274092622843003
  0.3655985096364940  0.5818050156429757  0.4727426083678911
  0.1432190365531405  0.8593280746763432  0.0274487460103449
  0.8317022753806189  0.1154870260179798  0.9727393276207790
 
  0.00000000E+00  0.00000000E+00  0.00000000E+00
  0.00000000E+00  0.00000000E+00  0.00000000E+00
  0.00000000E+00  0.00000000E+00  0.00000000E+00
  0.00000000E+00  0.00000000E+00  0.00000000E+00
  0.00000000E+00  0.00000000E+00  0.00000000E+00
  0.00000000E+00  0.00000000E+00  0.00000000E+00
  0.00000000E+00  0.00000000E+00  0.00000000E+00
  0.00000000E+00  0.00000000E+00  0.00000000E+00
  0.00000000E+00  0.00000000E+00  0.00000000E+00
  0.00000000E+00  0.00000000E+00  0.00000000E+00
  0.00000000E+00  0.00000000E+00  0.00000000E+00
  0.00000000E+00  0.00000000E+00  0.00000000E+00
  0.00000000E+00  0.00000000E+00  0.00000000E+00
  0.00000000E+00  0.00000000E+00  0.00000000E+00
  0.00000000E+00  0.00000000E+00  0.00000000E+00
  0.00000000E+00  0.00000000E+00  0.00000000E+00
  0.00000000E+00  0.00000000E+00  0.00000000E+00
  0.00000000E+00  0.00000000E+00  0.00000000E+00
  0.00000000E+00  0.00000000E+00  0.00000000E+00
  0.00000000E+00  0.00000000E+00  0.00000000E+00
  0.00000000E+00  0.00000000E+00  0.00000000E+00
  0.00000000E+00  0.00000000E+00  0.00000000E+00
  0.00000000E+00  0.00000000E+00  0.00000000E+00
  0.00000000E+00  0.00000000E+00  0.00000000E+00
  0.00000000E+00  0.00000000E+00  0.00000000E+00
  0.00000000E+00  0.00000000E+00  0.00000000E+00
  0.00000000E+00  0.00000000E+00  0.00000000E+00
  0.00000000E+00  0.00000000E+00  0.00000000E+00
  0.00000000E+00  0.00000000E+00  0.00000000E+00
  0.00000000E+00  0.00000000E+00  0.00000000E+00
