P4                                      
   1.00000000000000     
    -3.2848045332081544   -0.0010433648236640   -0.0000000366718705
    -0.0000000522588315   -0.0000000410219076   -4.5308433734881390
     1.6407484950343456   -5.4232713598406201   -0.0000000274646616
   P 
     4
Direct
  0.5961681732673298  0.4113536964461204  0.1927883749011201
  0.4038318256729880  0.5886463034011626  0.8072116233574675
  0.9038318723541252  0.9113537047466309  0.8072116363580975
  0.0961681287055640  0.0886462954060860  0.1927883653833078
 
  0.00000000E+00  0.00000000E+00  0.00000000E+00
  0.00000000E+00  0.00000000E+00  0.00000000E+00
  0.00000000E+00  0.00000000E+00  0.00000000E+00
  0.00000000E+00  0.00000000E+00  0.00000000E+00
