P8 O12                                  
   1.00000000000000     
     5.9884276523883564   -0.0000019070663690   -1.9197001775699949
    -0.0000017299763189    7.7727778534043361    0.0000022743879914
    -0.1722293572466717    0.0000020160754933    6.7071088800497600
   P    O 
     8    12
Direct
  0.7415519765857539  0.2499998786492554  0.4904578431147399
  0.2584217675379890  0.7500001300378543  0.5095211839104863
  0.3431591005995926  0.2499999951645009  0.6321356982188817
  0.6568502575273030  0.7499999984027212  0.3678819269225784
  0.7529044117935229  0.0609479385339640  0.8747874860894314
  0.2471126419727483  0.5609464236543076  0.1252157102082734
  0.2471129612358354  0.9390535960076534  0.1252154576064441
  0.7529047400589874  0.4390520554444208  0.8747872356198343
  0.4672338482754412  0.2500000195323437  0.4513333528473211
  0.5327431175384945  0.7499999957537540  0.5486624867255685
  0.4769392091322118  0.0879803604699205  0.7782344813884521
  0.5230846226191090  0.5879832210949658  0.2217835198708258
  0.5230849380107330  0.9120166176785105  0.2217833485771905
  0.4769396626801949  0.4120197501530711  0.7782333128700927
  0.8159747149441330  0.0878842015681514  0.6577931907366050
  0.1839918597583150  0.5878839957982720  0.3421827659358172
  0.1839922284752689  0.9121160854482326  0.3421827035227452
  0.8159751324147351  0.4121157298303117  0.6577931401394608
  0.8244084183999831  0.2500001123661875  0.9840911338532550
  0.1756143904396481  0.7499998944116015  0.0159240218419967
 
  0.00000000E+00  0.00000000E+00  0.00000000E+00
  0.00000000E+00  0.00000000E+00  0.00000000E+00
  0.00000000E+00  0.00000000E+00  0.00000000E+00
  0.00000000E+00  0.00000000E+00  0.00000000E+00
  0.00000000E+00  0.00000000E+00  0.00000000E+00
  0.00000000E+00  0.00000000E+00  0.00000000E+00
  0.00000000E+00  0.00000000E+00  0.00000000E+00
  0.00000000E+00  0.00000000E+00  0.00000000E+00
  0.00000000E+00  0.00000000E+00  0.00000000E+00
  0.00000000E+00  0.00000000E+00  0.00000000E+00
  0.00000000E+00  0.00000000E+00  0.00000000E+00
  0.00000000E+00  0.00000000E+00  0.00000000E+00
  0.00000000E+00  0.00000000E+00  0.00000000E+00
  0.00000000E+00  0.00000000E+00  0.00000000E+00
  0.00000000E+00  0.00000000E+00  0.00000000E+00
  0.00000000E+00  0.00000000E+00  0.00000000E+00
  0.00000000E+00  0.00000000E+00  0.00000000E+00
  0.00000000E+00  0.00000000E+00  0.00000000E+00
  0.00000000E+00  0.00000000E+00  0.00000000E+00
  0.00000000E+00  0.00000000E+00  0.00000000E+00
