Ca2 Mn4 S6 O24                          
   1.00000000000000     
     7.8201559999999999    0.1510300000000000    4.4524299999999997
     2.7040270000000000    7.3380700000000001    4.4755520000000004
     0.1165580000000000    0.1126470000000000    8.8626339999999999
   Ca   Mn   S    O 
     2     4     6    24
Direct
  0.2525785537841538  0.8439633084806833  0.5706944992232512
  0.9877778284360347  0.9962853300382989  0.0059722626285229
  0.6607291571423095  0.6225613874300552  0.6468385229607726
  0.1483353854572409  0.1587643008038527  0.1305816154672705
  0.8197793189838637  0.8388219246864520  0.8582187107161181
  0.3621600910510869  0.3674549746885940  0.3539957791871187
  0.9776133508126973  0.2432264509602285  0.5428522345688539
  0.4261784568402128  0.0270042781058297  0.7502014918646571
  0.5529377644167851  0.9608031579110951  0.2374291704362599
  0.7519202523298359  0.4394523371999927  0.0481466866221933
  0.2518837882865207  0.5516466623037627  0.9524598974440985
  0.0413645975896669  0.7515317230027982  0.4478726411160951
  0.4066965054733144  0.5633323893519779  0.7737358305942436
  0.8937255041015615  0.2507480164046564  0.0903311690463288
  0.8024903924258843  0.3934434452403607  0.5476126726879315
  0.0682044121206582  0.8984834592011219  0.2646510708839983
  0.5728053938914159  0.7935963881804744  0.4033186577879478
  0.2446270912352774  0.0785646638606046  0.8955570263874544
  0.7259671445162019  0.9306384940401717  0.0793608943943313
  0.2162926142089677  0.5986306604483222  0.4533575324093975
  0.0968071078636278  0.7322067735398227  0.9061543328957303
  0.4489462680524222  0.1893595583236030  0.5898226095601018
  0.9600491614546844  0.0814188455569774  0.7211992724952122
  0.5891201453833601  0.4521112599472167  0.2114102993943183
  0.0431437542790901  0.1664188967117969  0.3988739259112679
  0.4261444850306997  0.8896940686656365  0.7048433675218682
  0.3968334644335876 -0.0197357749595024  0.2061727249430455
  0.7122115627252122  0.4643657683504948  0.8934764265665515
  0.2034699953011880  0.3979689554025768  1.0051317753830717
  0.8957819309242370  0.6993808107564683  0.4836892371592768
  0.1200612211709705  0.2935040943166197  0.5193308498391292
  0.5715245590755772  0.9420442975812915  0.8294952214672263
  0.5196554940526553  0.1221341029845461  0.2654071228955559
  0.8315378876934618  0.5719373200701664 -0.0049658517349634
  0.2886427968978161  0.5448873575832984  0.0978114001890147
 -0.0103093480924352  0.8271579449784585  0.5901794400789631
 
             NaN             NaN             NaN
             NaN             NaN             NaN
             NaN             NaN             NaN
             NaN             NaN             NaN
             NaN             NaN             NaN
             NaN             NaN             NaN
             NaN             NaN             NaN
             NaN             NaN             NaN
             NaN             NaN             NaN
             NaN             NaN             NaN
             NaN             NaN             NaN
             NaN             NaN             NaN
             NaN             NaN             NaN
             NaN             NaN             NaN
             NaN             NaN             NaN
             NaN             NaN             NaN
             NaN             NaN             NaN
             NaN             NaN             NaN
             NaN             NaN             NaN
             NaN             NaN             NaN
             NaN             NaN             NaN
             NaN             NaN             NaN
             NaN             NaN             NaN
             NaN             NaN             NaN
             NaN             NaN             NaN
             NaN             NaN             NaN
             NaN             NaN             NaN
             NaN             NaN             NaN
             NaN             NaN             NaN
             NaN             NaN             NaN
             NaN             NaN             NaN
             NaN             NaN             NaN
             NaN             NaN             NaN
             NaN             NaN             NaN
             NaN             NaN             NaN
             NaN             NaN             NaN
