Ca2 Mn4 S6 O24
1.0
7.820156 0.151030 4.452430
2.704027 7.338070 4.475552
0.116558 0.112647 8.862634
Ca Mn S O
2 4 6 24
direct
0.278995 0.823251 0.568367 Ca
0.978774 0.998034 1.015999 Ca
0.653609 0.632656 0.647225 Mn
0.143725 0.164694 0.133261 Mn
0.823675 0.840035 0.853488 Mn
0.363803 0.362623 0.351539 Mn
0.968687 0.250122 0.542787 S
0.423800 0.031597 0.752071 S
0.554515 0.961937 0.238510 S
0.748869 0.444103 0.048773 S
0.249035 0.554996 0.949445 S
0.042301 0.752450 0.451593 S
0.399904 0.573507 0.768053 O
0.894597 0.257197 0.082946 O
0.794979 0.403170 0.553476 O
0.067236 0.902499 0.270307 O
0.570950 0.789848 0.399916 O
0.245363 0.071410 0.903374 O
0.722837 0.931267 0.077084 O
0.211017 0.592166 0.447190 O
0.092458 0.737007 0.916594 O
0.437788 0.200183 0.597897 O
0.954892 0.091456 0.723954 O
0.589946 0.448267 0.216860 O
1.017230 0.175780 0.403524 O
0.426477 0.900495 0.696644 O
0.390194 1.002033 0.207475 O
0.703577 0.474745 0.895683 O
0.197497 0.406079 0.993641 O
0.883545 0.715687 0.494143 O
0.120142 0.296113 0.505299 O
0.573824 -0.055420 0.824470 O
0.539223 0.111793 0.272471 O
0.824530 0.577595 0.000481 O
0.296204 0.532356 0.095660 O
0.009583 0.815927 0.595318 O
