Fe6 P3                                  
   1.00000000000000     
     6.4340588147759918    0.0005333003391812   -0.0000000763894297
    -3.2165675416324144    5.5723235794943049    0.0000001706817718
    -0.0000000411197341    0.0000000630510068    3.3816869837608081
   Fe   P 
     6     3
Direct
  0.7403432159844756  0.7403287947473327  0.9999999875566259
  0.2597229887370823  0.0000152630087421  0.9999999895630141
  0.0000285882331434  0.2597336675258693  0.0000000028455225
  0.4125365483600364  0.4125572836073901  0.5000000716867228
  0.5874630499193939  0.9999270277395502  0.5000000748301924
  0.9999135100850094  0.5874462726138302  0.5000000578222267
  0.6666451045036746  0.3333108745209145  0.0000000191980444
  0.3333225067694582  0.6666631414435437  0.0000000182779665
  0.0000244874077263  0.0000176747928201  0.4999997782196848
 
  0.00000000E+00  0.00000000E+00  0.00000000E+00
  0.00000000E+00  0.00000000E+00  0.00000000E+00
  0.00000000E+00  0.00000000E+00  0.00000000E+00
  0.00000000E+00  0.00000000E+00  0.00000000E+00
  0.00000000E+00  0.00000000E+00  0.00000000E+00
  0.00000000E+00  0.00000000E+00  0.00000000E+00
  0.00000000E+00  0.00000000E+00  0.00000000E+00
  0.00000000E+00  0.00000000E+00  0.00000000E+00
  0.00000000E+00  0.00000000E+00  0.00000000E+00
