Ca4 V4 P6 O24
1.0
2.555438 7.257261 4.338499
-0.004497 0.025253 8.792037
7.668736 0.026291 4.297831
Ca V P O
4 4 6 24
direct
0.317552 0.782250 0.567238 Ca
0.964150 0.004220 0.021892 Ca
0.404918 0.742898 0.106617 Ca
0.140157 0.405387 0.741617 Ca
0.646280 0.632854 0.632046 V
0.143594 0.149195 0.150713 V
0.843676 0.858063 0.856316 V
0.353157 0.347722 0.352095 V
0.246271 0.555974 0.949640 P
0.038201 0.751647 0.449163 P
0.960717 0.251830 0.556192 P
0.450551 0.035188 0.742487 P
0.536977 0.946132 0.249763 P
0.747906 0.455213 0.033766 P
0.562778 0.765972 0.411728 O
0.260744 0.063102 0.908009 O
0.401230 0.575839 0.760987 O
0.923437 0.283620 0.040433 O
0.778525 0.409058 0.561487 O
0.068874 0.910741 0.265114 O
0.937296 0.085409 0.737437 O
0.584777 0.422595 0.210632 O
0.714948 0.944053 0.085498 O
0.228045 0.590870 0.420359 O
0.084901 0.742942 0.924821 O
0.428486 0.221019 0.588624 O
0.191197 0.398549 0.985835 O
0.878644 0.706327 0.484977 O
0.036477 0.180829 0.398073 O
0.468345 0.873945 0.704296 O
0.383713 0.954368 0.205600 O
0.710929 0.495316 0.863685 O
0.296473 0.531479 0.104993 O
0.020009 0.778792 0.618264 O
0.108241 0.303877 0.549286 O
0.602102 0.981657 0.809151 O
0.467411 0.108042 0.312437 O
0.771717 0.624014 0.015862 O
