Cr10 S12                                
   1.00000000000000     
     6.0564546984156538   -0.0000205860458998    0.0000170231268867
    -3.0282451651791331    5.2450333527628068    0.0000170906926333
     0.0000326929832250    0.0000567368874432   11.6636718796975334
   Cr   S 
    10    12
Direct
  0.9999986811538122  0.0000012527860207  0.2500020635220039
  0.0000012406030976  0.9999986810899486  0.7500021428109207
  0.3333349084525139  0.6666651869948836  0.2499960070891518
  0.6666651963824322  0.3333349214054735  0.7499959955707283
  0.0000005197665160  0.9999995464160065  0.5000040888901935
  0.9999995538813664  0.0000005125963085  0.0000059010608737
  0.3333552263655335  0.6666876448887251  0.5105053179910612
  0.6666876452522317  0.3333552357737517  0.0105050575534165
  0.6666453076109207  0.3333125345746026  0.4894981887638181
  0.3333125395663430  0.6666453119492814  0.9894979609897305
  0.6624853376076771  0.9871059675369835  0.1188061522979353
  0.3246187573238331  0.3375124363900355  0.1188066179446423
  0.0128990171615868  0.6753881554693635  0.1188079052082429
  0.3375123391414618  0.3246184734598856  0.6188059248146516
  0.9871057902902791  0.6624854514502374  0.6188054658643054
  0.6753884513547064  0.0128991937081651  0.6188072225406529
  0.3375051446016926  0.0128813569565196  0.8811931915985767
  0.6753741384000307  0.6624950315669693  0.8811916274411757
  0.9871146772933770  0.3246191505883758  0.8811901436247567
  0.6624948756200908  0.6753739522718831  0.3811909805145248
  0.0128813205922640  0.3375053003420305  0.3811925387357888
  0.3246193315782335  0.9871147017845345  0.3811895051728555
 
  0.00000000E+00  0.00000000E+00  0.00000000E+00
  0.00000000E+00  0.00000000E+00  0.00000000E+00
  0.00000000E+00  0.00000000E+00  0.00000000E+00
  0.00000000E+00  0.00000000E+00  0.00000000E+00
  0.00000000E+00  0.00000000E+00  0.00000000E+00
  0.00000000E+00  0.00000000E+00  0.00000000E+00
  0.00000000E+00  0.00000000E+00  0.00000000E+00
  0.00000000E+00  0.00000000E+00  0.00000000E+00
  0.00000000E+00  0.00000000E+00  0.00000000E+00
  0.00000000E+00  0.00000000E+00  0.00000000E+00
  0.00000000E+00  0.00000000E+00  0.00000000E+00
  0.00000000E+00  0.00000000E+00  0.00000000E+00
  0.00000000E+00  0.00000000E+00  0.00000000E+00
  0.00000000E+00  0.00000000E+00  0.00000000E+00
  0.00000000E+00  0.00000000E+00  0.00000000E+00
  0.00000000E+00  0.00000000E+00  0.00000000E+00
  0.00000000E+00  0.00000000E+00  0.00000000E+00
  0.00000000E+00  0.00000000E+00  0.00000000E+00
  0.00000000E+00  0.00000000E+00  0.00000000E+00
  0.00000000E+00  0.00000000E+00  0.00000000E+00
  0.00000000E+00  0.00000000E+00  0.00000000E+00
  0.00000000E+00  0.00000000E+00  0.00000000E+00
