Ca1 Ni4 O8                              
   1.00000000000000     
    -2.8241351153959053   -4.8804432191817160   -0.0074358989681051
    -5.6386739068240255   -0.0055417682778744   -0.0073915367075060
    -2.8282461662041616   -1.6329274737404762   -5.5668727384104892
   Ca   Ni   O 
     1     4     8
Direct
  0.4999956619101908  0.5000037857992154  0.5000002736328000
  0.0000036844459572  0.9999961969479187  0.0000003213248050
  0.9999899552408067  0.4999683344538255  0.0000048641579937
  0.5000309936071972  0.0000098724313560  0.9999958278758712
  0.4999920294736455  0.5000077427163276  0.0000003788694656
  0.7238830310395912  0.7238494412726268  0.8287779190561935
  0.2761091710042010  0.2761559290772553  0.1712247264948417
  0.2369200854673394  0.2369233233684866  0.8218082668464746
  0.7048524037643915  0.2368693112943845  0.8217070214838671
  0.2368986641890700  0.7048240081441151  0.8217297287180116
  0.7630578846583731  0.7631007625424360  0.1781890104876283
  0.2951503868255259  0.7631169487585510  0.1782875509801940
  0.7631160483737176  0.2951743431934872  0.1782741100718539
 
  0.00000000E+00  0.00000000E+00  0.00000000E+00
  0.00000000E+00  0.00000000E+00  0.00000000E+00
  0.00000000E+00  0.00000000E+00  0.00000000E+00
  0.00000000E+00  0.00000000E+00  0.00000000E+00
  0.00000000E+00  0.00000000E+00  0.00000000E+00
  0.00000000E+00  0.00000000E+00  0.00000000E+00
  0.00000000E+00  0.00000000E+00  0.00000000E+00
  0.00000000E+00  0.00000000E+00  0.00000000E+00
  0.00000000E+00  0.00000000E+00  0.00000000E+00
  0.00000000E+00  0.00000000E+00  0.00000000E+00
  0.00000000E+00  0.00000000E+00  0.00000000E+00
  0.00000000E+00  0.00000000E+00  0.00000000E+00
  0.00000000E+00  0.00000000E+00  0.00000000E+00
