Ca2 Cr4 S6 O24                          
   1.00000000000000     
     7.4599080000000004   -0.0265360000000000    4.5706530000000001
     2.3718460000000001    7.0731500000000000    4.5675379999999999
    -0.0194830000000000   -0.0369120000000000    9.2821960000000008
   Ca   Cr   S    O 
     2     4     6    24
Direct
  0.4126878968492538  0.5715506040911916  0.5356607690535906
  0.9746723708689651  1.0395226664959434 -0.0175233614194623
  0.6580301419816371  0.6282316426634326  0.6691914377078046
  0.1486411243604822  0.1427596126176921  0.1568527469011377
  0.8430676460527481  0.8563478466846358  0.8379937335211903
  0.3399400850110609  0.3639293331659214  0.3446326984212212
  0.9426905452420884  0.2550650765665577  0.5574934333060915
  0.4583203827280246  0.0427057543832521  0.7491251640778464
  0.5284834799935377  0.9643243550098338  0.2526367295109183
  0.7549289057687015  0.4315757065788327  0.0457843103935996
  0.2344732538564461  0.5671228923255326  0.9531795518675227
  0.0516106283729019  0.7560251489265043  0.4312845366266211
  0.4167807470949926  0.5495796591518991  0.7955870259230617
  0.9002489921981951  0.2601976064698595  0.1150384718083712
  0.7662524733916526  0.4195058139877901  0.5678136320472762
  0.0719837800455689  0.9061432200953462  0.2523379862298591
  0.5250994562098987  0.8130837568474286  0.4293276327585864
  0.2626352871428101  0.0791480656921184  0.8791956602405780
  0.7197973178107425  0.9243281506938013  0.1191712558854039
  0.2281065971444712  0.5902608543237231  0.4151529329773010
  0.0949334363685410  0.7424596042906217  0.8795465452467013
  0.4686499709656097  0.2083095007566344  0.5820124329610835
  0.9080209635506086  0.0990830181021394  0.7361727208918256
  0.5768725583495373  0.4580743840707026  0.1973523152129655
  0.9890699866643423  0.1997957013351012  0.4147441913590840
  0.5093546297133933  0.8709054815646337  0.7204858921513488
  0.3921574904671948 -0.0368946403326770  0.2053783357235983
  0.7417475258943659  0.3896917330942403  0.9187436424397462
  0.1830544744546923  0.4028053211796873  1.0157667348267683
  0.8901465489598317  0.7060107544604993  0.4857109563285416
  0.0960573056297398  0.2993986166870379  0.5367515822096431
  0.5852523017117326  1.0149472736615281  0.8255799775182667
  0.4763130895074273  0.1480530268493747  0.2586477540980403
  0.8146767628383205  0.5971726286776312 -0.0452866803814741
  0.2514373662356060  0.5859482196931624  0.0892186621557000
  0.0449609662720264  0.8086333153721572  0.5604468903383372
 
             NaN             NaN             NaN
             NaN             NaN             NaN
             NaN             NaN             NaN
             NaN             NaN             NaN
             NaN             NaN             NaN
             NaN             NaN             NaN
             NaN             NaN             NaN
             NaN             NaN             NaN
             NaN             NaN             NaN
             NaN             NaN             NaN
             NaN             NaN             NaN
             NaN             NaN             NaN
             NaN             NaN             NaN
             NaN             NaN             NaN
             NaN             NaN             NaN
             NaN             NaN             NaN
             NaN             NaN             NaN
             NaN             NaN             NaN
             NaN             NaN             NaN
             NaN             NaN             NaN
             NaN             NaN             NaN
             NaN             NaN             NaN
             NaN             NaN             NaN
             NaN             NaN             NaN
             NaN             NaN             NaN
             NaN             NaN             NaN
             NaN             NaN             NaN
             NaN             NaN             NaN
             NaN             NaN             NaN
             NaN             NaN             NaN
             NaN             NaN             NaN
             NaN             NaN             NaN
             NaN             NaN             NaN
             NaN             NaN             NaN
             NaN             NaN             NaN
             NaN             NaN             NaN
