Ca2 Cr4 S6 O24
1.0
7.459908 -0.026536 4.570653
2.371846 7.073150 4.567538
-0.019483 -0.036912 9.282196
Ca Cr S O
2 4 6 24
direct
0.439326 0.595592 0.518591 Ca
0.998579 0.996495 1.001128 Ca
0.650406 0.637110 0.653674 Cr
0.139595 0.151724 0.150452 Cr
0.851908 0.841679 0.846899 Cr
0.343062 0.356230 0.349047 Cr
0.942452 0.248427 0.558640 S
0.461864 0.030196 0.743914 S
0.529336 0.965706 0.243545 S
0.749728 0.436828 0.052518 S
0.245022 0.558760 0.943155 S
0.056847 0.748337 0.441079 S
0.402963 0.571077 0.766540 O
0.906300 0.255601 0.085812 O
0.764681 0.408032 0.580153 O
0.073366 0.905017 0.263370 O
0.537818 0.780117 0.386785 O
0.274607 0.053143 0.886385 O
0.716782 0.957959 0.103693 O
0.233016 0.587160 0.416644 O
0.086232 0.740082 0.911538 O
0.464593 0.209557 0.594588 O
0.922106 0.087477 0.733689 O
0.586486 0.427103 0.223196 O
0.974254 0.197745 0.418123 O
0.494140 0.888018 0.682325 O
0.395741 0.013582 0.166856 O
0.709509 0.452409 0.912018 O
0.187199 0.403035 0.994967 O
0.895661 0.698645 0.491618 O
0.097750 0.297292 0.524588 O
0.605137 0.968596 0.815183 O
0.470799 0.105051 0.319541 O
0.807628 0.590839 0.006958 O
0.292677 0.547956 0.076096 O
0.041840 0.801196 0.573587 O
