Ni17 S18                                
   1.00000000000000     
     5.2138460813989802    3.0296356290080375    5.6219827524823067
    -5.2184820341114788    3.0173943045896818    5.6244270847963067
    -0.0145660896826103   -6.0302411435179968    5.6205697096458591
   Ni   S 
    17    18
Direct
  0.9950216460459570  0.3276270163229870  0.6605711001968279
  0.3391337473883529  0.6723934148338671  0.0052386465567990
  0.3422608650164423 -0.0000321663799754  0.6576552861047400
  0.6659205040773322  0.3277260390119079  0.0066837285359194
  0.9932137966363543  0.6723482939988425  0.3340650632297383
  0.9935212383905564  0.0000849891367116  0.0063391488305208
  0.6679294708274214  0.6723542857345962  0.6591389942956438
  0.3418339938482544  0.3265253659377010  0.3331524360389096
  0.8195938131642615  0.1546272269026107  0.4851876781703338
  0.5147861743276094  0.8454267846822190  0.1803473268638557
  0.1652339676019455  0.8282104007688018  0.5063960756237701
  0.4935364443650875  0.1719500763871053  0.8347297027899544
  0.8375870571951635  0.5001358833044350  0.1623728058053634
  0.8373885006132936  0.8281474649881632  0.8346728967079610
  0.4936256700981297  0.5001083370457524  0.5063285149656126
  0.1652699260082681  0.1720373558960363  0.1625243645403984
  0.1653725158080602  0.5000583878661093  0.8345725189028471
  0.4714572113773594  0.4769117038928022  0.8102821864824362
  0.1437355501937476  0.4766262676510067  0.1387151283558960
  0.1435088384568100  0.8054972562791713  0.8098811478852288
  0.8614445329900415  0.5233392926844466  0.8563943915402498
  0.1896628332573820  0.5231748479785191  0.5284195311988603
  0.1900371545104498  0.1945796419969402  0.8562191316529645
  0.8035430301534983  0.1376767442268871  0.8053300214205403
  0.8037589668805861  0.4720448238616964  0.4698926600435322
  0.1397850364486724  0.1375285072102064  0.4696457802886028
  0.5299631933334777  0.5278448108126766  0.1961720945192210
  0.1944030405707830  0.8625202211538243  0.1963556232531289
  0.5300534222595716  0.8624749302167828  0.8601368397980979
  0.4668127365199518  0.1388205903167191  0.1339020519158614
  0.8067971151823070  0.8007359208299888  0.1337720702096584
  0.4672644428434351  0.7998539236758508  0.4725290939274218
  0.8661322909066032  0.1995858767650065  0.1929853682887651
  0.8662639539869005  0.8611568014387743  0.5330739036755135
  0.5275793187159146  0.1999976825708486  0.5330836873848409
 
  0.00000000E+00  0.00000000E+00  0.00000000E+00
  0.00000000E+00  0.00000000E+00  0.00000000E+00
  0.00000000E+00  0.00000000E+00  0.00000000E+00
  0.00000000E+00  0.00000000E+00  0.00000000E+00
  0.00000000E+00  0.00000000E+00  0.00000000E+00
  0.00000000E+00  0.00000000E+00  0.00000000E+00
  0.00000000E+00  0.00000000E+00  0.00000000E+00
  0.00000000E+00  0.00000000E+00  0.00000000E+00
  0.00000000E+00  0.00000000E+00  0.00000000E+00
  0.00000000E+00  0.00000000E+00  0.00000000E+00
  0.00000000E+00  0.00000000E+00  0.00000000E+00
  0.00000000E+00  0.00000000E+00  0.00000000E+00
  0.00000000E+00  0.00000000E+00  0.00000000E+00
  0.00000000E+00  0.00000000E+00  0.00000000E+00
  0.00000000E+00  0.00000000E+00  0.00000000E+00
  0.00000000E+00  0.00000000E+00  0.00000000E+00
  0.00000000E+00  0.00000000E+00  0.00000000E+00
  0.00000000E+00  0.00000000E+00  0.00000000E+00
  0.00000000E+00  0.00000000E+00  0.00000000E+00
  0.00000000E+00  0.00000000E+00  0.00000000E+00
  0.00000000E+00  0.00000000E+00  0.00000000E+00
  0.00000000E+00  0.00000000E+00  0.00000000E+00
  0.00000000E+00  0.00000000E+00  0.00000000E+00
  0.00000000E+00  0.00000000E+00  0.00000000E+00
  0.00000000E+00  0.00000000E+00  0.00000000E+00
  0.00000000E+00  0.00000000E+00  0.00000000E+00
  0.00000000E+00  0.00000000E+00  0.00000000E+00
  0.00000000E+00  0.00000000E+00  0.00000000E+00
  0.00000000E+00  0.00000000E+00  0.00000000E+00
  0.00000000E+00  0.00000000E+00  0.00000000E+00
  0.00000000E+00  0.00000000E+00  0.00000000E+00
  0.00000000E+00  0.00000000E+00  0.00000000E+00
  0.00000000E+00  0.00000000E+00  0.00000000E+00
  0.00000000E+00  0.00000000E+00  0.00000000E+00
  0.00000000E+00  0.00000000E+00  0.00000000E+00
