V2 P4                                   
   1.00000000000000     
     0.0006517074803944   -3.1115446935043662    0.0002248409614861
    -3.6656587151918805   -1.5551535989705860    2.0621584281010046
    -3.6628235303848156   -1.5546650204228183   -5.0763282701580197
   V    P 
     2     4
Direct
  0.8404834148727289  0.1167179848091848  0.1989767622619993
  0.1595173980368116  0.8832814811413101  0.8010217900728307
  0.5994582530886063  0.7033995751969755  0.0976312611384529
  0.4005428478331865  0.2966020403872562  0.9023645951285033
  0.1411438846263522  0.2475665935905980  0.4700667589183070
  0.8588542015423073  0.7524323248746825  0.5299388324799068
 
  0.00000000E+00  0.00000000E+00  0.00000000E+00
  0.00000000E+00  0.00000000E+00  0.00000000E+00
  0.00000000E+00  0.00000000E+00  0.00000000E+00
  0.00000000E+00  0.00000000E+00  0.00000000E+00
  0.00000000E+00  0.00000000E+00  0.00000000E+00
  0.00000000E+00  0.00000000E+00  0.00000000E+00
