Ca2 Co4 S6 O24                          
   1.00000000000000     
     7.6363820000000002    0.0530110000000000    4.4644100000000000
     2.6593819999999999    7.0228429999999999    4.5270330000000003
     0.2119990000000000   -0.0031390000000000    8.8259249999999998
   Ca   Co   S    O 
     2     4     6    24
Direct
  0.3882270697437283  0.6378282439529445  0.5103579220586906
  0.9797761369298482  0.0387327660508129  0.9783359274983060
  0.6583128066884975  0.6251162420736077  0.6686343753177267
  0.1554527607331704  0.1439963258231156  0.1431274719455582
  0.8354451032279595  0.8645924672805596  0.8423814164164922
  0.3452355705831187  0.3570315630460295  0.3497927065548236
  0.9523088736010380  0.2535853560029453  0.5433180717297086
  0.4509593016727463  0.0383266591641060  0.7545920815354962
  0.5431353289687536  0.9606240123003263  0.2470999228192134
  0.7481013257031718  0.4484709003916070  0.0472320327459772
  0.2396578223507636  0.5540674187161833  0.9596103638169013
  0.0375664736236504  0.7552649687161269  0.4422560214544354
  0.4213797033072627  0.5438301078524114  0.7939382306661626
  0.8897673563876314  0.2621812303276329  0.1157072667352004
  0.7843044906912762  0.4292299780999023  0.5304481017625726
  0.0778295083017575  0.8993588938681419  0.2515227412520150
  0.5437987084075769  0.8229008917536121  0.4390188310887289
  0.2533958373083577  0.1020634532074577  0.8884033454170106
  0.7330502405888059  0.9047237467362463  0.1067855543913146
  0.2102468325472942  0.5794453660938940  0.4450770653899688
  0.0991766518914351  0.7439150833830910  0.8937675950278294
  0.4633788143307527  0.1800445558900086  0.5646158977760722
  0.8975966641356855  0.1067269871286627  0.7329793372309694
  0.5665357246545898  0.4751314146437865  0.2038956364507984
  0.0182154094872776  0.1832788422555160  0.3954626160898237
  0.4881847005330419  0.8489390696747287  0.7682889207815498
  0.4003401850514797  0.9422784718562991  0.2219825275572797
  0.7352957937495355  0.4279160335822289  0.8975168635394262
  0.1866247411851835  0.4016042130049207  0.0006315444052094
  0.8769485181569301  0.7185361729378218  0.4836227632321461
  0.1039644129105244  0.2817894157870467  0.5397325862841557
  0.5818437921825120  0.0304934915650844  0.8151866851031081
  0.4955986455578788  0.1533251455569051  0.2290643636590984
  0.8125702328257104  0.6043464389400640  0.9701455404900922
  0.2570989062791812  0.5450267626419821  0.1188105125429405
  0.0158900802507814  0.8158057278773142  0.5816537287616438
 
             NaN             NaN             NaN
             NaN             NaN             NaN
             NaN             NaN             NaN
             NaN             NaN             NaN
             NaN             NaN             NaN
             NaN             NaN             NaN
             NaN             NaN             NaN
             NaN             NaN             NaN
             NaN             NaN             NaN
             NaN             NaN             NaN
             NaN             NaN             NaN
             NaN             NaN             NaN
             NaN             NaN             NaN
             NaN             NaN             NaN
             NaN             NaN             NaN
             NaN             NaN             NaN
             NaN             NaN             NaN
             NaN             NaN             NaN
             NaN             NaN             NaN
             NaN             NaN             NaN
             NaN             NaN             NaN
             NaN             NaN             NaN
             NaN             NaN             NaN
             NaN             NaN             NaN
             NaN             NaN             NaN
             NaN             NaN             NaN
             NaN             NaN             NaN
             NaN             NaN             NaN
             NaN             NaN             NaN
             NaN             NaN             NaN
             NaN             NaN             NaN
             NaN             NaN             NaN
             NaN             NaN             NaN
             NaN             NaN             NaN
             NaN             NaN             NaN
             NaN             NaN             NaN
