Ca2 Co4 S6 O24                          
   1.00000000000000     
     7.6363820000000002    0.0530110000000000    4.4644100000000000
     2.6593819999999999    7.0228429999999999    4.5270330000000003
     0.2119990000000000   -0.0031390000000000    8.8259249999999998
   Ca   Co   S    O 
     2     4     6    24
Direct
  0.3564910494686465  0.6663450054913751  0.5232183153483501
  0.9859832168740018  0.0251347848691763  0.9822206488291788
  0.6539754952252231  0.6290692902084638  0.6676321359699305
  0.1477144572939681  0.1462521075135930  0.1451025319787840
  0.8373028614511563  0.8595107872720286  0.8444739583872979
  0.3509040261939986  0.3564275619355799  0.3495097323289162
  0.9557364700134359  0.2517843136917320  0.5410535280051353
  0.4481742551482010  0.0415870803669868  0.7545851894541103
  0.5481335002309941  0.9611982993982571  0.2457474009974148
  0.7473476364576265  0.4473432795576389  0.0467864650886280
  0.2435688203464646  0.5501474070420279  0.9593796640703697
  0.0355344019913056  0.7547586512430290  0.4423243247006342
  0.4243209911585402  0.5377458028889005  0.7932751944084783
  0.8867268539217510  0.2571597056177699  0.1129300832390980
  0.7890486886026861  0.4268805209288595  0.5376032476930186
  0.0815869184165195  0.8959138244539810  0.2512951607265120
  0.5505505532448575  0.8151693727314449  0.4342994397919777
  0.2521986124321961  0.0993600119500624  0.8936963411395982
  0.7346493842249353  0.9026835274872524  0.1024293778237440
  0.2060351728527994  0.5782052418767283  0.4520134135846202
  0.1046268870926230  0.7409379694600519  0.8888654888696410
  0.4594508398356571  0.1928624349985589  0.5703781048767376
  0.9091771517239712  0.1012301973389467  0.7300583054930097
  0.5667776126379691  0.4745069216938373  0.2042218004368300
  1.0042245582359550  0.1871026602661994  0.3945456603714004
  0.4777114226412663  0.8616731677217199  0.7523309395057728
  0.3952898007731216  0.9587046511502606  0.2219687020591808
  0.7297867797604841  0.4364587742981423  0.8949418091149133
  0.1872936114738057  0.3989892889532126  1.0055832406156815
  0.8738205786328281  0.7225744203372572  0.4802590839745091
  0.1161117916360941  0.2762823051130381  0.5256513371238640
  0.5824361773812861  1.0176480572173283  0.8210436857670176
  0.5159046220844619  0.1465615552015214  0.2335688878846749
  0.8180477561346015  0.5977956276718210  0.9740886570456331
  0.2605146775555603  0.5451911161196571  0.1165717495744401
  0.0098561663809643  0.8196585059817607  0.5814190176789984
 
             NaN             NaN             NaN
             NaN             NaN             NaN
             NaN             NaN             NaN
             NaN             NaN             NaN
             NaN             NaN             NaN
             NaN             NaN             NaN
             NaN             NaN             NaN
             NaN             NaN             NaN
             NaN             NaN             NaN
             NaN             NaN             NaN
             NaN             NaN             NaN
             NaN             NaN             NaN
             NaN             NaN             NaN
             NaN             NaN             NaN
             NaN             NaN             NaN
             NaN             NaN             NaN
             NaN             NaN             NaN
             NaN             NaN             NaN
             NaN             NaN             NaN
             NaN             NaN             NaN
             NaN             NaN             NaN
             NaN             NaN             NaN
             NaN             NaN             NaN
             NaN             NaN             NaN
             NaN             NaN             NaN
             NaN             NaN             NaN
             NaN             NaN             NaN
             NaN             NaN             NaN
             NaN             NaN             NaN
             NaN             NaN             NaN
             NaN             NaN             NaN
             NaN             NaN             NaN
             NaN             NaN             NaN
             NaN             NaN             NaN
             NaN             NaN             NaN
             NaN             NaN             NaN
