Ca6 Mn4 O14                             
   1.00000000000000     
     0.0000317454607237    0.0000152609522417   -5.2446830339186015
    -0.0009526037963359   -5.2501619229319747   -0.0000040648308314
    -9.7030933959817531    2.6233320398404083    0.0000336917342744
   Ca   Mn   O 
     6     4    14
Direct
  0.7774445045909815  0.2489408590801290  0.0000793033375075
  0.2774459283355526  0.7510580500136257  0.9999141124139470
  0.7264053230449363  0.4312742299132992  0.3739592049082745
  0.7262062156762212  0.0582369722336225  0.6262764567209018
  0.2263856799272830  0.5687388157104962  0.6260333869400654
  0.2262443127321916  0.9417540504732429  0.3737175057356481
  0.7499259236898865  0.6522837185210690  0.8038435351671183
  0.7497265723170230  0.8465679264079995  0.1960071304006945
  0.2499665843348637  0.3476855624218160  0.1961004424979294
  0.2497316379914736  0.1533660682337441  0.8039342326765606
  0.7406544547451972  0.6963535945475385  0.0000284651001721
  0.2406544198672549  0.3036664776416913  0.0000046246881524
  0.5405780910142752  0.9539398405444857  0.8254032988655524
  0.5407276091922739  0.1276193483529440  0.1746456719609952
  0.0406714989390906  0.0460291085514584  0.1746478136760032
  0.0406138510878407  0.8724514579563305  0.8254002556142837
  0.4598003066008047  0.4334982912139509  0.7858909586512226
  0.4597906437364685  0.6464635136240702  0.2138048517863567
  0.9598003973972169  0.5664125177187103  0.2140586011201151
  0.9597937903328742  0.3535846276236967  0.7861429484791884
  0.7545113631789206  0.5927476030069698  0.6094826976167198
  0.7542037447303400  0.9820656970533435  0.3906662692142575
  0.2545310720162348  0.4074198040451336  0.3905721462920511
  0.2541860745208027  0.0178418651106256  0.6093860861362899
 
  0.00000000E+00  0.00000000E+00  0.00000000E+00
  0.00000000E+00  0.00000000E+00  0.00000000E+00
  0.00000000E+00  0.00000000E+00  0.00000000E+00
  0.00000000E+00  0.00000000E+00  0.00000000E+00
  0.00000000E+00  0.00000000E+00  0.00000000E+00
  0.00000000E+00  0.00000000E+00  0.00000000E+00
  0.00000000E+00  0.00000000E+00  0.00000000E+00
  0.00000000E+00  0.00000000E+00  0.00000000E+00
  0.00000000E+00  0.00000000E+00  0.00000000E+00
  0.00000000E+00  0.00000000E+00  0.00000000E+00
  0.00000000E+00  0.00000000E+00  0.00000000E+00
  0.00000000E+00  0.00000000E+00  0.00000000E+00
  0.00000000E+00  0.00000000E+00  0.00000000E+00
  0.00000000E+00  0.00000000E+00  0.00000000E+00
  0.00000000E+00  0.00000000E+00  0.00000000E+00
  0.00000000E+00  0.00000000E+00  0.00000000E+00
  0.00000000E+00  0.00000000E+00  0.00000000E+00
  0.00000000E+00  0.00000000E+00  0.00000000E+00
  0.00000000E+00  0.00000000E+00  0.00000000E+00
  0.00000000E+00  0.00000000E+00  0.00000000E+00
  0.00000000E+00  0.00000000E+00  0.00000000E+00
  0.00000000E+00  0.00000000E+00  0.00000000E+00
  0.00000000E+00  0.00000000E+00  0.00000000E+00
  0.00000000E+00  0.00000000E+00  0.00000000E+00
