Ti24 P8                                 
   1.00000000000000     
    10.0427613776754239    0.0002451779161064    0.0004527559605749
     0.0003121094429317   10.0427091625514642    0.0015211460761801
     0.0002248002456641    0.0007755539005817    5.0577439949077672
   Ti   P 
    24     8
Direct
  0.8328927398665941  0.1439278523498742  0.2861084650577027
  0.6671183624258246  0.3560893112657157  0.2859458445670456
  0.6438823245156982  0.1671797908276181  0.7859630119632778
  0.8558910722619153  0.3329582074885792  0.7862589991207830
  0.1671225627460600  0.8561535080235253  0.7145119361884174
  0.3329165814191479  0.6441023243590908  0.7135309076113699
  0.3561049923564030  0.8329269783395729  0.2139819964939538
  0.1439839653829707  0.6671304794086103  0.2137513263010850
  0.2783331824849030  0.1088333528716285  0.9686919348195231
  0.2217087288191399  0.3912008338198134  0.9694181412891179
  0.6087917152090045  0.7216900035451912  0.4689132059717175
  0.8911916095747883  0.7783069072709420  0.4690465292026276
  0.7216637947787223  0.8911564497682690  0.0307863528118345
  0.7782360005363435  0.6088199987451387  0.0313093920032935
  0.3910700724234602  0.2781457066291815  0.5311934968304292
  0.1086969041851891  0.2215932372348546  0.5307722546167077
  0.4303043423622535  0.5329355937971419  0.2360805589419426
  0.0699330461612530  0.9670808228302626  0.2356889093682935
  0.0328506702686619  0.5696894708157861  0.7361020103946054
  0.4671177122357859  0.9302639151492440  0.7359266115724820
  0.5697410044250153  0.4672176235324286  0.7640064265614354
  0.9303183492179165  0.0331164132381785  0.7638639680015760
  0.9670907588344260  0.4301931212623746  0.2641689545497878
  0.5329792238508241  0.0696852142462758  0.2638638395828026
  0.2904219845230404  0.0441658510492601  0.4641134340529114
  0.2095092383576763  0.4557156887463648  0.4648418914167520
  0.5442620241147250  0.7094733019766062  0.9643230559260391
  0.9557496558170137  0.7903517695351118  0.9645149112888061
  0.7095179708353490  0.9557589098309380  0.5353696113607881
  0.7903694304236626  0.5442398055997083  0.5358081932379593
  0.4558835053948306  0.2903834288140732  0.0356876673013988
  0.0443464741914021  0.2095141276286467  0.0354561615935342
 
  0.00000000E+00  0.00000000E+00  0.00000000E+00
  0.00000000E+00  0.00000000E+00  0.00000000E+00
  0.00000000E+00  0.00000000E+00  0.00000000E+00
  0.00000000E+00  0.00000000E+00  0.00000000E+00
  0.00000000E+00  0.00000000E+00  0.00000000E+00
  0.00000000E+00  0.00000000E+00  0.00000000E+00
  0.00000000E+00  0.00000000E+00  0.00000000E+00
  0.00000000E+00  0.00000000E+00  0.00000000E+00
  0.00000000E+00  0.00000000E+00  0.00000000E+00
  0.00000000E+00  0.00000000E+00  0.00000000E+00
  0.00000000E+00  0.00000000E+00  0.00000000E+00
  0.00000000E+00  0.00000000E+00  0.00000000E+00
  0.00000000E+00  0.00000000E+00  0.00000000E+00
  0.00000000E+00  0.00000000E+00  0.00000000E+00
  0.00000000E+00  0.00000000E+00  0.00000000E+00
  0.00000000E+00  0.00000000E+00  0.00000000E+00
  0.00000000E+00  0.00000000E+00  0.00000000E+00
  0.00000000E+00  0.00000000E+00  0.00000000E+00
  0.00000000E+00  0.00000000E+00  0.00000000E+00
  0.00000000E+00  0.00000000E+00  0.00000000E+00
  0.00000000E+00  0.00000000E+00  0.00000000E+00
  0.00000000E+00  0.00000000E+00  0.00000000E+00
  0.00000000E+00  0.00000000E+00  0.00000000E+00
  0.00000000E+00  0.00000000E+00  0.00000000E+00
  0.00000000E+00  0.00000000E+00  0.00000000E+00
  0.00000000E+00  0.00000000E+00  0.00000000E+00
  0.00000000E+00  0.00000000E+00  0.00000000E+00
  0.00000000E+00  0.00000000E+00  0.00000000E+00
  0.00000000E+00  0.00000000E+00  0.00000000E+00
  0.00000000E+00  0.00000000E+00  0.00000000E+00
  0.00000000E+00  0.00000000E+00  0.00000000E+00
  0.00000000E+00  0.00000000E+00  0.00000000E+00
