Ni4 P8                                  
   1.00000000000000     
     5.3970857432394022    0.0000004018931998   -0.0000042198367351
     0.0000004132026843    5.3970730481494193   -0.0000023978245900
    -0.0000041836822265   -0.0000024071425111    5.3970305781850536
   Ni   P 
     4     8
Direct
  0.4999999242815080  0.4999985744161761  0.9999997404694788
  0.4999998710092005  0.0000015085484792  0.4999997179477298
  0.9999999668668189  0.4999985730010211  0.5000001813950444
  0.9999997244954945  0.0000014686848411  0.0000004606255115
  0.1156935249885764  0.8843072619601008  0.3843083284706325
  0.8843062744356582  0.3843028979628905  0.1156927390225419
  0.3843047281962881  0.1156969945590929  0.8843081293867016
  0.6156950580707776  0.6156919827747874  0.6156912093993115
  0.8843065935681975  0.1156970616456821  0.6156933757147012
  0.1156938545235156  0.6156927045949807  0.8843089164696724
  0.6156954269415713  0.8843073352256859  0.1156901592091261
  0.3843050526224004  0.3843036366262621  0.3843070418895554
 
  0.00000000E+00  0.00000000E+00  0.00000000E+00
  0.00000000E+00  0.00000000E+00  0.00000000E+00
  0.00000000E+00  0.00000000E+00  0.00000000E+00
  0.00000000E+00  0.00000000E+00  0.00000000E+00
  0.00000000E+00  0.00000000E+00  0.00000000E+00
  0.00000000E+00  0.00000000E+00  0.00000000E+00
  0.00000000E+00  0.00000000E+00  0.00000000E+00
  0.00000000E+00  0.00000000E+00  0.00000000E+00
  0.00000000E+00  0.00000000E+00  0.00000000E+00
  0.00000000E+00  0.00000000E+00  0.00000000E+00
  0.00000000E+00  0.00000000E+00  0.00000000E+00
  0.00000000E+00  0.00000000E+00  0.00000000E+00
