Ca2 Co4 S6 O24                          
   1.00000000000000     
     7.6693309999999997    0.0558010000000000    4.4459109999999997
     2.7081200000000001    6.9952329999999998    4.5599509999999999
     0.2669800000000000   -0.0218350000000000    8.8456609999999998
   Ca   Co   S    O 
     2     4     6    24
Direct
  0.2712440431715476  0.7649118357563021  0.5593970892280533
  0.9724295585142914  0.0333728674391204  0.9884007388877694
  0.6618969695235746  0.6187119499077112  0.6597013439508366
  0.1526135497910515  0.1426873114022240  0.1364881749241057
  0.8208042988939985  0.8617645469507181  0.8551118076309836
  0.3547710132231744  0.3648248449215521  0.3544911277410949
  0.9693821492021655  0.2405110427162708  0.5393521490894564
  0.4483337506630269  0.0408893908017412  0.7519725008781312
  0.5488046756606679  0.9604288071332560  0.2482614325208679
  0.7521365917393417  0.4468550779250681  0.0386840168366241
  0.2481740743858309  0.5441406536426369  0.9629365620711279
  0.0311761657524117  0.7531858063773597  0.4408362325095403
  0.4217736287010625  0.5435076218903835  0.7901006526167882
  0.8872575212732935  0.2581860828332700  0.1165603032350576
  0.7970289890835731  0.4081542747698348  0.5387671295500527
  0.0738689985626526  0.8979345189228261  0.2501244617038979
  0.5503994097909720  0.8098193445078752  0.4353489567992451
  0.2487597110181951  0.0940398916908253  0.8883106903346363
  0.7343423342080185  0.9020551673081617  0.1033206745640534
  0.2134088324765022  0.5939747151467223  0.4584713543363634
  0.1015300809050216  0.7340596278238982  0.8966019770303414
  0.4620417419827896  0.1940169306684044  0.5692270651199047
  0.9312565502216040  0.0806309043126678  0.7259331396911122
  0.5676008438936752  0.4836958638705850  0.1855785573643061
  0.0306672176154212  0.1674112127198272  0.3943116252185311
  0.4921238227301241  0.8590842356443918  0.7432018387817779
  0.3937894252599490  0.9662028984650487  0.2225794231928914
  0.7465209119917942  0.4242211677028721  0.8861148654748019
  0.1958941529666712  0.3901806665930895  1.0099259218495078
  0.8953853449907452  0.6920242382215885  0.4660887073365700
  0.1241065372888119  0.2711544954040669  0.5259372892418988
  0.5705592234240756  0.0213619539203342  0.8300493298815549
  0.5208216382344825  0.1421675252197006  0.2414484243967118
  0.8255230073673612  0.5964423301767646  0.9613438550647616
  0.2675064591391709  0.5411378936003951  0.1169699651314733
  0.9638310695368736  0.8358883478084829  0.5828388573473442
 
             NaN             NaN             NaN
             NaN             NaN             NaN
             NaN             NaN             NaN
             NaN             NaN             NaN
             NaN             NaN             NaN
             NaN             NaN             NaN
             NaN             NaN             NaN
             NaN             NaN             NaN
             NaN             NaN             NaN
             NaN             NaN             NaN
             NaN             NaN             NaN
             NaN             NaN             NaN
             NaN             NaN             NaN
             NaN             NaN             NaN
             NaN             NaN             NaN
             NaN             NaN             NaN
             NaN             NaN             NaN
             NaN             NaN             NaN
             NaN             NaN             NaN
             NaN             NaN             NaN
             NaN             NaN             NaN
             NaN             NaN             NaN
             NaN             NaN             NaN
             NaN             NaN             NaN
             NaN             NaN             NaN
             NaN             NaN             NaN
             NaN             NaN             NaN
             NaN             NaN             NaN
             NaN             NaN             NaN
             NaN             NaN             NaN
             NaN             NaN             NaN
             NaN             NaN             NaN
             NaN             NaN             NaN
             NaN             NaN             NaN
             NaN             NaN             NaN
             NaN             NaN             NaN
