Ca2 Co4 S6 O24                          
   1.00000000000000     
     7.6693309999999997    0.0558010000000000    4.4459109999999997
     2.7081200000000001    6.9952329999999998    4.5599509999999999
     0.2669800000000000   -0.0218350000000000    8.8456609999999998
   Ca   Co   S    O 
     2     4     6    24
Direct
  0.2448078296747212  0.8134899623624435  0.5649508016764644
  0.9815109110232263  0.0112359538010201  0.9995513357390702
  0.6618951004527567  0.6280396798975031  0.6511965487260928
  0.1478057685246200  0.1433740639748906  0.1371214794283236
  0.8223065954759244  0.8493639535588514  0.8630214840082394
  0.3592904103239155  0.3659167703550254  0.3474823294316333
  0.9799575036688944  0.2464113204167385  0.5318830875421994
  0.4514891663542414  0.0363630311766068  0.7553642363434905
  0.5559320809251252  0.9580628250756474  0.2508240284075488
  0.7418246659844125  0.4450560389420232  0.0378504678359650
  0.2413862813258165  0.5387369659770713  0.9598664776532027
  0.0340179208061857  0.7540695091891418  0.4432135221066275
  0.4068200501083702  0.5591177534592037  0.7831338665217460
  0.8775815988837995  0.2530551281639792  0.1079404487965884
  0.8040913235528414  0.4084744911175465  0.5424404091917461
  0.0811467070663388  0.9041765014256070  0.2539534060228548
  0.5571613799217306  0.7995304380106720  0.4359471191220086
  0.2525603893068805  0.0900435117353490  0.8949452721055163
  0.7371014694057131  0.9001933961417021  0.1011968016508255
  0.2125930189595485  0.5955001644370126  0.4640424122393260
  0.0814837115091996  0.7251681892091363  0.9067591375626336
  0.4639685283557134  0.1902938439994065  0.5747285534639689
  0.9610125401016010  0.0774313966753699  0.7142650219018242
  0.5583973691922219  0.4771930314509643  0.1906439372729072
  1.0320783754776610  0.1737078785347141  0.3887094957324726
  0.4866846979218475  0.8563863228935733  0.7474542391014947
  0.3936280982240766  0.9783161463493165  0.2269461973057169
  0.7294314996886736  0.4402636111942759  0.8787412841303145
  0.2009899568818846  0.3798069421085462 -0.0015517648824650
  0.9006741257591423  0.7004339819921431  0.4519300536756110
  0.1378009881442115  0.2811793032342103  0.5073705591076458
  0.5793554721363816  1.0094662573289337  0.8331126410884435
  0.5406027574430541  0.1313469660958382  0.2500776006377822
  0.8158735676343774  0.5890519636388281 -0.0260462418540437
  0.2585956709669636  0.5330830559611719  0.1167098725558796
  0.9553898441118855  0.8371347467166899  0.5892080085232140
 
             NaN             NaN             NaN
             NaN             NaN             NaN
             NaN             NaN             NaN
             NaN             NaN             NaN
             NaN             NaN             NaN
             NaN             NaN             NaN
             NaN             NaN             NaN
             NaN             NaN             NaN
             NaN             NaN             NaN
             NaN             NaN             NaN
             NaN             NaN             NaN
             NaN             NaN             NaN
             NaN             NaN             NaN
             NaN             NaN             NaN
             NaN             NaN             NaN
             NaN             NaN             NaN
             NaN             NaN             NaN
             NaN             NaN             NaN
             NaN             NaN             NaN
             NaN             NaN             NaN
             NaN             NaN             NaN
             NaN             NaN             NaN
             NaN             NaN             NaN
             NaN             NaN             NaN
             NaN             NaN             NaN
             NaN             NaN             NaN
             NaN             NaN             NaN
             NaN             NaN             NaN
             NaN             NaN             NaN
             NaN             NaN             NaN
             NaN             NaN             NaN
             NaN             NaN             NaN
             NaN             NaN             NaN
             NaN             NaN             NaN
             NaN             NaN             NaN
             NaN             NaN             NaN
