Fe4 S8                                  
   1.00000000000000     
     5.5552740812074877   -0.0000158849288003   -0.0000954433487676
     0.0000004473098925    5.5552128510616656    0.0000680767024514
    -0.0000426318079175   -0.0000063736588907    5.5563951449702840
   Fe   S 
     4     8
Direct
  0.4999499486846114  0.5000711243643073  0.9999955832842305
  0.4999475845498087  0.9999274290302884  0.4999939946926896
  0.9999506645861029  0.5000678832227609  0.5000054821729870
  0.9999507364143044 -0.0000676533999514  0.0000035757072168
  0.1084148277916785  0.8916927721949960  0.3917532315915569
  0.8916318500194182  0.3917478151794088  0.1082984692539000
  0.3916871550506724  0.1082947607388471  0.8917014217145297
  0.6083708256857190  0.6082989186057969  0.6082664454890276
  0.8916351797547238  0.1082832154991137  0.6082888916606626
  0.1084184966211678  0.6082777925769989  0.8917436390618608
  0.6083620043473374  0.8916795322865950  0.1082573050706137
  0.3916807264944480  0.3917264097008458  0.3916919603007316
 
  0.00000000E+00  0.00000000E+00  0.00000000E+00
  0.00000000E+00  0.00000000E+00  0.00000000E+00
  0.00000000E+00  0.00000000E+00  0.00000000E+00
  0.00000000E+00  0.00000000E+00  0.00000000E+00
  0.00000000E+00  0.00000000E+00  0.00000000E+00
  0.00000000E+00  0.00000000E+00  0.00000000E+00
  0.00000000E+00  0.00000000E+00  0.00000000E+00
  0.00000000E+00  0.00000000E+00  0.00000000E+00
  0.00000000E+00  0.00000000E+00  0.00000000E+00
  0.00000000E+00  0.00000000E+00  0.00000000E+00
  0.00000000E+00  0.00000000E+00  0.00000000E+00
  0.00000000E+00  0.00000000E+00  0.00000000E+00
