Ca1 Cr4 P6 O24                          
   1.00000000000000     
     2.6258140000000001    6.9618070000000003    4.4397190000000002
     0.3114470000000000    0.1459210000000000    8.6418189999999999
     7.4293709999999997    0.1575380000000000    4.4015789999999999
   Ca   Cr   P    O 
     1     4     6    24
Direct
  0.2556894066241571  0.8076658592311667  0.5659797235045756
  0.6506178944774291  0.6396571430757062  0.6371917718996796
  0.1348305392055416  0.1538582103810090  0.1359346544015613
  0.8436247909792912  0.8432650817653816  0.8614844685685028
  0.3631371681029692  0.3416104930608579  0.3643373594373794
  0.2553291175681004  0.5177491213824073  0.9637396914206238
  0.0275057057725834  0.7410338732474304  0.4682031789560496
  0.9697412043577794  0.2525292485480104  0.5169265947393770
  0.4516325133306410  0.0222138089064081  0.7553033224816266
  0.5510998047386536  0.9705923509500738  0.2366799587008367
  0.7446745010519167  0.4673998010466486  0.0426289622318940
  0.5819017361781793  0.7685249627534125  0.4054434017996446
  0.2892045694959822  0.0206263551063834  0.9513570492631109
  0.4263058183816299  0.5599891205394871  0.7732892380987164
  0.9314826775566567  0.2851914674670201  0.0460473360593941
  0.7865709005631556  0.4074032500141627  0.5932409124578436
  0.0489270479410444  0.9426592995206671  0.3366944286964317
  0.9630092821469669  0.0475751619712627  0.6601955832124062
  0.5740276453564694  0.4207364536955570  0.2249784629415414
  0.7141797212291392  0.9657664976177512  0.0413589371842764
  0.2199977426190649  0.5857709516506373  0.4093770063954270
  0.0788555118412241  0.7055372330314690  0.9264829150234980
  0.4098538927933427  0.2247197448198717  0.5952580305944168
  0.2416898905116037  0.3467502260038439  0.9650322451693727
  0.8576012775219862  0.7367652777843935  0.4661435469380424
  0.9844966560360573  0.2906038903885845  0.3168943908115234
  0.4726426418722980  0.8709212249799441  0.6974224026538219
  0.3543192247820245  1.0119347656898636  0.2374819866871370
  0.7094907583915512  0.5269804045673324  0.8604904078557783
  0.2871154850098504  0.4745712494337447  0.1394897544172190
 -0.0015889826789474  0.7098950060506596  0.6756868330114743
  0.1527093145846543  0.2530893465290925  0.5040217263596459
  0.6429189036330898  0.9763026464361351  0.7677628667319898
  0.5385233269426102  0.1179892848263909  0.2893551137627577
  0.7590762216244472  0.6323275842144022  0.0472475515204484
 
             NaN             NaN             NaN
             NaN             NaN             NaN
             NaN             NaN             NaN
             NaN             NaN             NaN
             NaN             NaN             NaN
             NaN             NaN             NaN
             NaN             NaN             NaN
             NaN             NaN             NaN
             NaN             NaN             NaN
             NaN             NaN             NaN
             NaN             NaN             NaN
             NaN             NaN             NaN
             NaN             NaN             NaN
             NaN             NaN             NaN
             NaN             NaN             NaN
             NaN             NaN             NaN
             NaN             NaN             NaN
             NaN             NaN             NaN
             NaN             NaN             NaN
             NaN             NaN             NaN
             NaN             NaN             NaN
             NaN             NaN             NaN
             NaN             NaN             NaN
             NaN             NaN             NaN
             NaN             NaN             NaN
             NaN             NaN             NaN
             NaN             NaN             NaN
             NaN             NaN             NaN
             NaN             NaN             NaN
             NaN             NaN             NaN
             NaN             NaN             NaN
             NaN             NaN             NaN
             NaN             NaN             NaN
             NaN             NaN             NaN
             NaN             NaN             NaN
