Ca1 Cr4 P6 O24
1.0
2.625814 6.961807 4.439719
0.311447 0.145921 8.641819
7.429371 0.157538 4.401579
Ca Cr P O
1 4 6 24
direct
0.334982 0.739708 0.576396 Ca
0.645247 0.638788 0.645994 Cr
0.138796 0.141874 0.142827 Cr
0.851348 0.849663 0.852596 Cr
0.358457 0.351946 0.352325 Cr
0.247543 0.528983 0.964477 P
0.035164 0.746773 0.466042 P
0.958305 0.253319 0.523373 P
0.464635 0.029587 0.747881 P
0.533359 0.969141 0.242830 P
0.748412 0.458039 0.036661 P
0.583137 0.777136 0.410106 O
0.309438 0.036364 0.945985 O
0.407235 0.580959 0.766730 O
0.939920 0.290770 0.033966 O
0.776684 0.419695 0.570899 O
0.043016 0.936200 0.294348 O
0.948072 0.060474 0.692721 O
0.586368 0.418709 0.231899 O
0.687839 0.961404 0.048622 O
0.217628 0.578664 0.415001 O
0.060283 0.704161 0.955440 O
0.408926 0.223976 0.587006 O
0.236053 0.349932 0.987267 O
0.857833 0.717570 0.511330 O
0.973711 0.250703 0.340536 O
0.473311 0.867680 0.715877 O
0.333527 0.992719 0.266619 O
0.696583 0.488634 0.876106 O
0.295642 0.497303 0.126780 O
0.035324 0.748283 0.641966 O
0.139035 0.264822 0.496003 O
0.660324 -0.003228 0.734964 O
0.516635 0.133844 0.277411 O
0.764699 0.641618 0.001938 O
