Ca4 Fe9 O17                             
   1.00000000000000     
     0.0011749923009700   -6.0086837587869262   -0.0003113275926143
    -5.1498332973529664    3.0050521716442451    0.7949044056294393
    -0.0158234035525657   -0.0001858119726233  -11.4269818911721437
   Ca   Fe   O 
     4     9    17
Direct
  0.4582849734348926  0.9179277041967495  0.7483325464606665
  0.5403080193966261  0.0822653088310688  0.2516673001905332
  0.2076529912007246  0.4152796297766344  0.2441128393370917
  0.7921664006182354  0.5845982044068165  0.7559370236160703
  0.2520685480091913  0.9998104937815881  0.5000257147566955
  0.8704777714979244  0.7430850806534295  0.2260351860191108
  0.1275367194530759  0.2569949915065735  0.7739151002610640
  0.1602625393860961  0.9980698529928205  0.9997438955937952
  0.5019152118178880  0.6663122333860514  0.9989973324163302
  0.8349206295190328  0.3308196221031920  0.0010937411621654
  0.7527905525376326  0.4985481491833781  0.4916986727557457
  0.2547587244311202  0.5022403982011099  0.5083847755531252
  0.7481730472232684  0.0010067397719524  0.4999347604853739
  0.9038073390295907  0.8055496532335269  0.3999697396294692
  0.0987934978584946  0.1952183307741393  0.6000740113894452
  0.3963382670865201  0.8017748622574814  0.4052108801589824
  0.5949531090984053  0.1988731956454757  0.5948865823307585
  0.9036793196831212  0.2955119349893991  0.4050970818852946
  0.6087340707683424  0.7055305803943455  0.5948378550376319
  0.4039474014271320  0.3072319058632331  0.4049712094020066
  0.0969453068670418  0.6931138892513147  0.5951406893461879
  0.4970803883820238  0.0035666613295859  0.0000010737914806
  0.5714189781607786  0.7336331290495792  0.1747761691527927
  0.8378860001217561  0.2662081567960044  0.8251913030490954
  0.8537339050995811  0.4263705031823477  0.1761815206366251
  0.4273314617863235  0.5738334521084383  0.8239130193319397
  0.1602948915011666  0.0165667314274245  0.1749689695701235
  0.1434068968187958  0.9832983086344100  0.8248695235321364
  0.1708933957605865  0.3407093765164504  0.0204634007734015
  0.8324396420246458  0.6560509197554794  0.9795680823748469
 
  0.00000000E+00  0.00000000E+00  0.00000000E+00
  0.00000000E+00  0.00000000E+00  0.00000000E+00
  0.00000000E+00  0.00000000E+00  0.00000000E+00
  0.00000000E+00  0.00000000E+00  0.00000000E+00
  0.00000000E+00  0.00000000E+00  0.00000000E+00
  0.00000000E+00  0.00000000E+00  0.00000000E+00
  0.00000000E+00  0.00000000E+00  0.00000000E+00
  0.00000000E+00  0.00000000E+00  0.00000000E+00
  0.00000000E+00  0.00000000E+00  0.00000000E+00
  0.00000000E+00  0.00000000E+00  0.00000000E+00
  0.00000000E+00  0.00000000E+00  0.00000000E+00
  0.00000000E+00  0.00000000E+00  0.00000000E+00
  0.00000000E+00  0.00000000E+00  0.00000000E+00
  0.00000000E+00  0.00000000E+00  0.00000000E+00
  0.00000000E+00  0.00000000E+00  0.00000000E+00
  0.00000000E+00  0.00000000E+00  0.00000000E+00
  0.00000000E+00  0.00000000E+00  0.00000000E+00
  0.00000000E+00  0.00000000E+00  0.00000000E+00
  0.00000000E+00  0.00000000E+00  0.00000000E+00
  0.00000000E+00  0.00000000E+00  0.00000000E+00
  0.00000000E+00  0.00000000E+00  0.00000000E+00
  0.00000000E+00  0.00000000E+00  0.00000000E+00
  0.00000000E+00  0.00000000E+00  0.00000000E+00
  0.00000000E+00  0.00000000E+00  0.00000000E+00
  0.00000000E+00  0.00000000E+00  0.00000000E+00
  0.00000000E+00  0.00000000E+00  0.00000000E+00
  0.00000000E+00  0.00000000E+00  0.00000000E+00
  0.00000000E+00  0.00000000E+00  0.00000000E+00
  0.00000000E+00  0.00000000E+00  0.00000000E+00
  0.00000000E+00  0.00000000E+00  0.00000000E+00
