Ca5 Mn4 P6 O24                          
   1.00000000000000     
     2.5831120317187439    7.5283072952534669    4.4149256301162092
    -0.0493881719829853    0.0847763610618176    8.8661421744884539
     7.7575636893767053    0.0847824699416289    4.3085460345536566
   Ca   Mn   P    O 
     5     4     6    24
Direct
  0.5425239868854891  0.4628983497121413  0.5015589957180216
  0.9539546261115194  0.9937651492963537  0.0326074256607873
  0.3932831700171399  0.7404605423669484  0.0832224946155119
  0.1048149943638041  0.4115964147384201  0.7557626664834662
  0.2481396842728396  0.8978785732545996  0.5979917210039244
  0.6602044775587097  0.6518545516009613  0.6329315636475501
  0.1482804146739268  0.1498254344570899  0.1569940549589135
  0.8361959532255845  0.8633070733424755  0.8438233301008551
  0.3458672764376336  0.3417495153033824  0.3445355735209943
  0.2476571672515966  0.5540972473273005  0.9417335696479830
  0.0628915091525404  0.7498869376189780  0.4478190427533104
  0.9622890694252982  0.2502821447902780  0.5655441708771693
  0.4331536050776832  0.0477087352872070  0.7461852144705718
  0.5333369877817310  0.9313212824366432  0.2458842353605939
  0.7482295455540069  0.4621297217737021  0.0332672174376557
  0.5570050748882609  0.7530900512982365  0.4088301229302720
  0.2487793140482344  0.0740977867652080  0.9050843045868249
  0.3965208579207597  0.5751282419996526  0.7520257344242375
  0.8956071854297185  0.2737096245585682  0.0362746874744383
  0.7843253385560186  0.4024978384772853  0.5623600120089651
  0.0746042334175689  0.8969763845427734  0.2588331696409263
  0.9384662071157051  0.0873811948988356  0.7436103029989561
  0.6009009902790662  0.4599456051786807  0.2215670336160069
  0.7113700214955050  0.9339856252737387  0.0936358430467645
  0.2473763715187694  0.5908862392246829  0.4214713672150367
  0.0988922011701572  0.7439751177171126  0.9196604580176287
  0.4218416727685889  0.2367166270146597  0.5992373655047877
  0.1933784055328523  0.3987706143947728  0.9766454933145934
  0.9102478642644382  0.6818174583218374  0.5214559110503775
  0.0476348589372820  0.1756111281193144  0.4077238692609874
  0.4466241672732226  0.9022431884206056  0.6891596803409156
  0.3954690040771264  0.9340781608506351  0.1910634364340735
  0.6515357190283093  0.5271482038266554  0.9025247038183773
  0.3016161222524072  0.5214193165649398  0.0962879267020399
  0.0493531176304892  0.8068719117560847  0.5932457072528613
  0.1001004142862908  0.3054326985508694  0.5624712663674563
  0.5856742703382607  0.9730651528658988  0.8147723444013151
  0.4480498848062473  0.0896805243800387  0.3199792739081588
  0.8447042351752292  0.5935096316924702  0.9672187094267083
 
  0.00000000E+00  0.00000000E+00  0.00000000E+00
  0.00000000E+00  0.00000000E+00  0.00000000E+00
  0.00000000E+00  0.00000000E+00  0.00000000E+00
  0.00000000E+00  0.00000000E+00  0.00000000E+00
  0.00000000E+00  0.00000000E+00  0.00000000E+00
  0.00000000E+00  0.00000000E+00  0.00000000E+00
  0.00000000E+00  0.00000000E+00  0.00000000E+00
  0.00000000E+00  0.00000000E+00  0.00000000E+00
  0.00000000E+00  0.00000000E+00  0.00000000E+00
  0.00000000E+00  0.00000000E+00  0.00000000E+00
  0.00000000E+00  0.00000000E+00  0.00000000E+00
  0.00000000E+00  0.00000000E+00  0.00000000E+00
  0.00000000E+00  0.00000000E+00  0.00000000E+00
  0.00000000E+00  0.00000000E+00  0.00000000E+00
  0.00000000E+00  0.00000000E+00  0.00000000E+00
  0.00000000E+00  0.00000000E+00  0.00000000E+00
  0.00000000E+00  0.00000000E+00  0.00000000E+00
  0.00000000E+00  0.00000000E+00  0.00000000E+00
  0.00000000E+00  0.00000000E+00  0.00000000E+00
  0.00000000E+00  0.00000000E+00  0.00000000E+00
  0.00000000E+00  0.00000000E+00  0.00000000E+00
  0.00000000E+00  0.00000000E+00  0.00000000E+00
  0.00000000E+00  0.00000000E+00  0.00000000E+00
  0.00000000E+00  0.00000000E+00  0.00000000E+00
  0.00000000E+00  0.00000000E+00  0.00000000E+00
  0.00000000E+00  0.00000000E+00  0.00000000E+00
  0.00000000E+00  0.00000000E+00  0.00000000E+00
  0.00000000E+00  0.00000000E+00  0.00000000E+00
  0.00000000E+00  0.00000000E+00  0.00000000E+00
  0.00000000E+00  0.00000000E+00  0.00000000E+00
  0.00000000E+00  0.00000000E+00  0.00000000E+00
  0.00000000E+00  0.00000000E+00  0.00000000E+00
  0.00000000E+00  0.00000000E+00  0.00000000E+00
  0.00000000E+00  0.00000000E+00  0.00000000E+00
  0.00000000E+00  0.00000000E+00  0.00000000E+00
  0.00000000E+00  0.00000000E+00  0.00000000E+00
  0.00000000E+00  0.00000000E+00  0.00000000E+00
  0.00000000E+00  0.00000000E+00  0.00000000E+00
  0.00000000E+00  0.00000000E+00  0.00000000E+00
