V4 S4 O20                               
   1.00000000000000     
     7.1750767408264178    0.0000002285982179   -0.0000002321601780
     0.0000002078851112    6.2954380623969426    0.0000007093938180
    -0.0000000313701458    0.0000006127994525    7.1654113902614043
   V    S    O 
     4     4    20
Direct
  0.6563721346730909  0.2499999792592867  0.2646758541345464
  0.1563721143177000  0.2500000195486710  0.2353247809690845
  0.3436416306367343  0.7499999749997481  0.7353008179418140
  0.8436393178046211  0.7500000150140658  0.7646983994990146
  0.3753637060697315  0.2499999356978748  0.6313510553061878
  0.8753590034009932  0.2500000411232549  0.8686496164830656
  0.6246440175410023  0.7499999790152290  0.3686356629646909
  0.1246436577289170  0.7500000111980835  0.1313621583275625
  0.2106909317093940  0.2499999587801295  0.5104572184170689
  0.7106882059540178  0.2500000406966530  0.9895430863415690
  0.7893127498203126  0.7499999559381504  0.4895358948449012
  0.2893133535318818  0.7499999454695865  0.0104640945076578
  0.5480205053645806  0.2499998936623493  0.5202449137860715
  0.0480097016943329  0.2500000674251377  0.9797654939714189
  0.4519861593935918  0.7500000335850910  0.4797528294228722
  0.9519854179445524  0.7500000090988648  0.0202446443447898
  0.8795082987250974  0.2499999884091554  0.3202109519047753
  0.3795094866550768  0.2500000413523858  0.1797910932393732
  0.1204730546143491  0.7500000878699630  0.6798221250315446
  0.6204730740863367  0.7499999994457298  0.8201783493687832
  0.6261035150354772  0.5647215427918969  0.2456546203971403
  0.1261021960708620  0.9352788252308342  0.2543433556320395
  0.3738967958455259  0.0647160362947958  0.7543390046257689
  0.8738942086924222  0.4352823106996190  0.7456585371776741
  0.3738968153336319  0.4352839383223630  0.7543387791666264
  0.8738942228951253  0.0647177476864638  0.7456586479403550
  0.6261035578201793  0.9352783936156573  0.2456545349859952
  0.1261021666404693  0.5647212277689746  0.2543434792676088
 
  0.00000000E+00  0.00000000E+00  0.00000000E+00
  0.00000000E+00  0.00000000E+00  0.00000000E+00
  0.00000000E+00  0.00000000E+00  0.00000000E+00
  0.00000000E+00  0.00000000E+00  0.00000000E+00
  0.00000000E+00  0.00000000E+00  0.00000000E+00
  0.00000000E+00  0.00000000E+00  0.00000000E+00
  0.00000000E+00  0.00000000E+00  0.00000000E+00
  0.00000000E+00  0.00000000E+00  0.00000000E+00
  0.00000000E+00  0.00000000E+00  0.00000000E+00
  0.00000000E+00  0.00000000E+00  0.00000000E+00
  0.00000000E+00  0.00000000E+00  0.00000000E+00
  0.00000000E+00  0.00000000E+00  0.00000000E+00
  0.00000000E+00  0.00000000E+00  0.00000000E+00
  0.00000000E+00  0.00000000E+00  0.00000000E+00
  0.00000000E+00  0.00000000E+00  0.00000000E+00
  0.00000000E+00  0.00000000E+00  0.00000000E+00
  0.00000000E+00  0.00000000E+00  0.00000000E+00
  0.00000000E+00  0.00000000E+00  0.00000000E+00
  0.00000000E+00  0.00000000E+00  0.00000000E+00
  0.00000000E+00  0.00000000E+00  0.00000000E+00
  0.00000000E+00  0.00000000E+00  0.00000000E+00
  0.00000000E+00  0.00000000E+00  0.00000000E+00
  0.00000000E+00  0.00000000E+00  0.00000000E+00
  0.00000000E+00  0.00000000E+00  0.00000000E+00
  0.00000000E+00  0.00000000E+00  0.00000000E+00
  0.00000000E+00  0.00000000E+00  0.00000000E+00
  0.00000000E+00  0.00000000E+00  0.00000000E+00
  0.00000000E+00  0.00000000E+00  0.00000000E+00
