Ca1 Fe4 S6 O24                          
   1.00000000000000     
     7.5783899999999997    0.1828480000000000    4.5485530000000001
     2.6593680000000002    7.0924800000000001    4.5664860000000003
     0.2632410000000000    0.2063500000000000    8.8398529999999997
   Ca   Fe   S    O 
     1     4     6    24
Direct
  0.2689088807932900  0.7670878402288589  0.5556243127302920
  0.6635670791797887  0.6321978948670204  0.6478789308015491
  0.1428565488937950  0.1524786798388442  0.1329935420463000
  0.8295921580353974  0.8478416897822690  0.8597014887709175
  0.3539576084000673  0.3500132294761423  0.3646508542172537
  0.9682191651006005  0.2429558828280080  0.5244801800108732
  0.4522424605647952  0.0377466950138750  0.7522463112080626
  0.5459880563249548  0.9633385721738927  0.2467716746627088
  0.7394762377865798  0.4600134554158369  0.0538594792038282
  0.2587056140858506  0.5273752574615143  0.9535013934718414
  0.0294810541593198  0.7442707899523108  0.4527146685949787
  0.4185066924173661  0.5781530592005795  0.7750131476935548
  0.9324159597635302  0.3157843000602102  0.0291208999470844
  0.7869284185714112  0.3673947326157957  0.6151262241268326
  0.0185344050667456  0.9467531053427901  0.3279924168333572
  0.5850522982932812  0.7729340863020918  0.4014965765511366
  0.3097049714363561  0.0123681305369768  0.9473662232526987
  0.6997090584187019  0.9598068709400450  0.0604415647889315
  0.2324177710726589  0.6175650809842098  0.3922641646058065
  0.0839643979802275  0.6911415974374653  0.9174913008619656
  0.3771806426101501  0.2318642933525992  0.6205700217065657
  0.9923344617698571  0.0359457706152535  0.6427432454273849
  0.5990874804742076  0.3925696663354056  0.2395647018733420
  0.9835088972025916  0.2839075532092109  0.3303040919221479
  0.4914414046596735  0.8919259625340267  0.6910295580766667
  0.3601447108284043  0.9940607108844399  0.2518835189361137
  0.6874795304836674  0.5049056380951089  0.8998286198815341
  0.2662555760643949  0.3504078626505753  0.9700236465419854
  0.9027472459261676  0.6948319308337956  0.4471519965184843
  0.1297976785003356  0.2711747936367420  0.5064013499966457
  0.6289384972509352  0.0237221677714986  0.7459795514151815
  0.5253800534690349  0.1125990252054459  0.2890434106688797
  0.7379068824603592  0.6337857133244501  0.0424666620981998
  0.2771632319340113  0.5056315047446930  0.1250918091132380
  0.9862609464911017  0.7187573035834331  0.6504658794699570
 
             NaN             NaN             NaN
             NaN             NaN             NaN
             NaN             NaN             NaN
             NaN             NaN             NaN
             NaN             NaN             NaN
             NaN             NaN             NaN
             NaN             NaN             NaN
             NaN             NaN             NaN
             NaN             NaN             NaN
             NaN             NaN             NaN
             NaN             NaN             NaN
             NaN             NaN             NaN
             NaN             NaN             NaN
             NaN             NaN             NaN
             NaN             NaN             NaN
             NaN             NaN             NaN
             NaN             NaN             NaN
             NaN             NaN             NaN
             NaN             NaN             NaN
             NaN             NaN             NaN
             NaN             NaN             NaN
             NaN             NaN             NaN
             NaN             NaN             NaN
             NaN             NaN             NaN
             NaN             NaN             NaN
             NaN             NaN             NaN
             NaN             NaN             NaN
             NaN             NaN             NaN
             NaN             NaN             NaN
             NaN             NaN             NaN
             NaN             NaN             NaN
             NaN             NaN             NaN
             NaN             NaN             NaN
             NaN             NaN             NaN
             NaN             NaN             NaN
