mosas                                   
   1.00000000000000     
    12.6596403122000005    0.0000000000000000    0.0000000000000000
    -6.3298216160000003   10.9635692703000007    0.0000000000000000
     0.0000000000000000    0.0000000000000000   18.1270904540999993
   S    O 
     1     2
Direct
  0.4699888844523628  0.3460414558704059  0.7841071982714425
  0.5811246276638542  0.4153596679264808  0.7442750655406911
  0.3588475028085512  0.2767148841743463  0.7442737001063264
 
  0.00000000E+00  0.00000000E+00  0.00000000E+00
  0.00000000E+00  0.00000000E+00  0.00000000E+00
  0.00000000E+00  0.00000000E+00  0.00000000E+00
