Ca1 V4 S6 O24                           
   1.00000000000000     
     7.3865179999999997   -0.0519130000000000    5.0263960000000001
     2.4198330000000001    6.5986029999999998    5.5052709999999996
     0.0566730000000000   -0.6002150000000001    8.9215060000000008
   Ca   V    S    O 
     1     4     6    24
Direct
  0.3362259541726116  0.6908477789555921  0.5211763530245084
  0.6525553118425533  0.6405029765975236  0.6481433399238484
  0.1427404761552724  0.1559882253217669  0.1421377762529806
  0.8411802852959168  0.8466268921346267  0.8484060083048598
  0.3537357959945546  0.3490560412490768  0.3626529484353543
  0.9636993710421194  0.2462486829980647  0.5272990191300556
  0.4483025943840832  0.0374417353999409  0.7519938925210243
  0.5476990657429081  0.9661529159535662  0.2405954102244226
  0.7402049958891264  0.4653641905375995  0.0521870654724623
  0.2484476085287848  0.5306178631959005  0.9654024459870816
  0.0318005369160325  0.7511891782548074  0.4527742048533667
  0.3979847678315441  0.6000541304870181  0.7765640710756196
  0.9414239214955066  0.3285325252099550  0.0181263134603109
  0.7750239541241820  0.3737219189339360  0.6204077307860971
  0.0090749888738246  0.9544546862207253  0.3370618300168174
  0.6069594244284207  0.7667817392795858  0.3864429459821663
  0.3122122524981918  0.0114318904776727  0.9539560035996327
  0.6852590499732087  0.9791019591517032  0.0453339888410042
  0.2366340984608332  0.6270517394286305  0.3718773617991356
  0.0601210561227744  0.6822630216014853  0.9567723010821777
  0.3727426757522176  0.2394066460861726  0.6236807122372494
  0.9832226682407138  0.0391330386295824  0.6433066951277736
  0.6106613147086799  0.3814725861491327  0.2456166645332289
  0.9786268259828027  0.2959623711520747  0.3326407128965585
  0.4717066670950867  0.9005496188119883  0.6926327835658107
  0.3552801783078519  0.9872467979477576  0.2673847140388773
  0.6829670354269449  0.5117444868757531  0.9030179729540589
  0.2740409562123163  0.3523412484283609  0.9674344657342915
  0.8987984877449205  0.7021590423490106  0.4613497127717335
  0.1214027221064513  0.2688342222558199  0.5125932194206113
  0.6382455875149138  0.0051441446427914  0.7318651203406840
  0.5263641480980303  0.1086716627272776  0.2871288335211020
  0.7200771759626636  0.6451346702105363  0.0459031631472922
  0.2803298601125625  0.5004832341851894  0.1226918296293108
  0.0121567103486513  0.7054148996242749  0.6509058308407503
 
             NaN             NaN             NaN
             NaN             NaN             NaN
             NaN             NaN             NaN
             NaN             NaN             NaN
             NaN             NaN             NaN
             NaN             NaN             NaN
             NaN             NaN             NaN
             NaN             NaN             NaN
             NaN             NaN             NaN
             NaN             NaN             NaN
             NaN             NaN             NaN
             NaN             NaN             NaN
             NaN             NaN             NaN
             NaN             NaN             NaN
             NaN             NaN             NaN
             NaN             NaN             NaN
             NaN             NaN             NaN
             NaN             NaN             NaN
             NaN             NaN             NaN
             NaN             NaN             NaN
             NaN             NaN             NaN
             NaN             NaN             NaN
             NaN             NaN             NaN
             NaN             NaN             NaN
             NaN             NaN             NaN
             NaN             NaN             NaN
             NaN             NaN             NaN
             NaN             NaN             NaN
             NaN             NaN             NaN
             NaN             NaN             NaN
             NaN             NaN             NaN
             NaN             NaN             NaN
             NaN             NaN             NaN
             NaN             NaN             NaN
             NaN             NaN             NaN
