Ca1 V4 S6 O24                           
   1.00000000000000     
     7.3865179999999997   -0.0519130000000000    5.0263960000000001
     2.4198330000000001    6.5986029999999998    5.5052709999999996
     0.0566730000000000   -0.6002150000000001    8.9215060000000008
   Ca   V    S    O 
     1     4     6    24
Direct
  0.3387949354681157  0.6887837633169585  0.5221834457493628
  0.6485233357913486  0.6460582867834788  0.6493483471777292
  0.1420618521625569  0.1569388390665681  0.1438792465328710
  0.8424286487397217  0.8452818859899162  0.8475649559402155
  0.3534395378457965  0.3483525638689823  0.3603974868867567
  0.9646862378114579  0.2425232190006656  0.5302998975547408
  0.4472055748298022  0.0389416062763426  0.7517898063453604
  0.5462520436452986  0.9704025803361436  0.2369563518298730
  0.7414613275893014  0.4630771623748117  0.0541567009435886
  0.2454049836270274  0.5307289703177679  0.9673468126498063
  0.0340668460715396  0.7500906740992253  0.4556463182768513
  0.3971729939512471  0.6006268928627633  0.7772531107792132
  0.9413025861002055  0.3312603609184815  0.0161899902514987
  0.7727369444353992  0.3748505649705791  0.6212687010937858
  0.0095086485272549  0.9539896874846847  0.3370931480447253
  0.6083347361775330  0.7649518808101986  0.3868563618707506
  0.3139173888410495  0.0091534788914191  0.9548182731475728
  0.6856428500664882  0.9778631572294296  0.0451417233598026
  0.2354129849955530  0.6280937127043081  0.3735844551451431
  0.0604187374504777  0.6824478888594987  0.9555228874697699
  0.3750296393611544  0.2364927020955616  0.6232622611422596
  0.9832720101112389  0.0381021081586475  0.6427699868453561
  0.6113524232340446  0.3831823576587758  0.2444433426150023
  0.9787094033375284  0.2963195289801009  0.3324941045524080
  0.4716415389315811  0.9028086412307967  0.6920964690925462
  0.3563977624203964  0.9874759246952984  0.2677936556984767
  0.6810345277822105  0.5140277160021242  0.9021244420288015
  0.2743042659127861  0.3533308010456565  0.9663070556008115
  0.8982798689679816  0.7013418705975636  0.4630077263119641
  0.1207297709015119  0.2663273068268517  0.5139065260207014
  0.6403457557156294  0.0028206846112760  0.7322178459391105
  0.5277412246891957  0.1060303858288068  0.2862315774223194
  0.7194932929881968  0.6460025687026274  0.0458430966022626
  0.2786672490298358  0.5025099781948477  0.1199686651778533
  0.0121483050596820  0.7059207710088617  0.6476942550509502
 
             NaN             NaN             NaN
             NaN             NaN             NaN
             NaN             NaN             NaN
             NaN             NaN             NaN
             NaN             NaN             NaN
             NaN             NaN             NaN
             NaN             NaN             NaN
             NaN             NaN             NaN
             NaN             NaN             NaN
             NaN             NaN             NaN
             NaN             NaN             NaN
             NaN             NaN             NaN
             NaN             NaN             NaN
             NaN             NaN             NaN
             NaN             NaN             NaN
             NaN             NaN             NaN
             NaN             NaN             NaN
             NaN             NaN             NaN
             NaN             NaN             NaN
             NaN             NaN             NaN
             NaN             NaN             NaN
             NaN             NaN             NaN
             NaN             NaN             NaN
             NaN             NaN             NaN
             NaN             NaN             NaN
             NaN             NaN             NaN
             NaN             NaN             NaN
             NaN             NaN             NaN
             NaN             NaN             NaN
             NaN             NaN             NaN
             NaN             NaN             NaN
             NaN             NaN             NaN
             NaN             NaN             NaN
             NaN             NaN             NaN
             NaN             NaN             NaN
