Ca1 V4 S6 O24                           
   1.00000000000000     
     7.4079959999999998   -0.0577490000000000    4.9898160000000003
     2.4078520000000001    6.6273030000000004    5.4572669999999999
     0.0436290000000000   -0.5977980000000001    8.9216479999999994
   Ca   V    S    O 
     1     4     6    24
Direct
  0.2632532728250931  0.7908447251108524  0.5661742329002133
  0.6575070737977836  0.6405350561499588  0.6444109601948511
  0.1398058532073365  0.1550838311942876  0.1387340405400765
  0.8353226435506014  0.8427305114586713  0.8517158674524711
  0.3571730254117519  0.3477475077843327  0.3617055422590346
  0.9637518364933891  0.2502748409221222  0.5216915493123960
  0.4436881833322537  0.0317839149186838  0.7524316025745356
  0.5494548514704223  0.9678288630123477  0.2376193416286066
  0.7421553295666744  0.4609200151122751  0.0521748825470202
  0.2569516754791172  0.5242328433225303  0.9610838956967322
  0.0416209845375655  0.7426467191656754  0.4559021575804141
  0.4182593280927273  0.5738163365841809  0.7786299856402019
  0.9414215976139438  0.3193891532048292  0.0179879994800372
  0.7840933228888319  0.3772813053895803  0.6171108017670895
  0.0248298980172904  0.9458810044492125  0.3450178947154073
  0.5934444218938882  0.7734254521387648  0.3918894365861796
  0.3078772008890362  0.0077144290422175  0.9524054697517179
  0.6917202232459322  0.9716125379910631  0.0472753933281959
  0.2404511895517427  0.6182767216200890  0.3771217301913899
  0.0813264258183969  0.6911501350214480  0.9277933676473396
  0.3734486886266480  0.2318087772575931  0.6231946175450113
  0.9747340351540397  0.0443461790352484  0.6425294822248158
  0.6130846689217067  0.3762101397180533  0.2417931678190875
  0.9728152133547421  0.2981644016799962  0.3319057993577963
  0.4619474301713978  0.8956892515826563  0.6935136731447262
  0.3563470509419250  0.0019063058092808  0.2551601582347255
  0.6842604411701450  0.5158727733950355  0.8998251989182935
  0.2652789347634441  0.3508362288853837  0.9716238128690308
  0.9010056495046540  0.7071720695729611  0.4584511460769771
  0.1315849453598242  0.2571970422333768  0.5065534336788193
  0.6353704163810953  0.9921891334972074  0.7337447182897904
  0.5331019381493094  0.1111955401917180  0.2805264390721391
  0.7303087477542204  0.6333180420881147  0.0505465902797342
  0.2767332019355190  0.4993435931942450  0.1232706446057055
  0.0137797021812800  0.6987020109798017  0.6559480766538960
 
             NaN             NaN             NaN
             NaN             NaN             NaN
             NaN             NaN             NaN
             NaN             NaN             NaN
             NaN             NaN             NaN
             NaN             NaN             NaN
             NaN             NaN             NaN
             NaN             NaN             NaN
             NaN             NaN             NaN
             NaN             NaN             NaN
             NaN             NaN             NaN
             NaN             NaN             NaN
             NaN             NaN             NaN
             NaN             NaN             NaN
             NaN             NaN             NaN
             NaN             NaN             NaN
             NaN             NaN             NaN
             NaN             NaN             NaN
             NaN             NaN             NaN
             NaN             NaN             NaN
             NaN             NaN             NaN
             NaN             NaN             NaN
             NaN             NaN             NaN
             NaN             NaN             NaN
             NaN             NaN             NaN
             NaN             NaN             NaN
             NaN             NaN             NaN
             NaN             NaN             NaN
             NaN             NaN             NaN
             NaN             NaN             NaN
             NaN             NaN             NaN
             NaN             NaN             NaN
             NaN             NaN             NaN
             NaN             NaN             NaN
             NaN             NaN             NaN
