Ca1 V4 S6 O24                           
   1.00000000000000     
     7.4079959999999998   -0.0577490000000000    4.9898160000000003
     2.4078520000000001    6.6273030000000004    5.4572669999999999
     0.0436290000000000   -0.5977980000000001    8.9216479999999994
   Ca   V    S    O 
     1     4     6    24
Direct
  0.2592954846775957  0.7911265822252046  0.5645849410413549
  0.6565549407116986  0.6402260712666686  0.6454448116838664
  0.1413478968165972  0.1556928716173499  0.1367129755856630
  0.8332939879585353  0.8436247940939700  0.8534178599754684
  0.3590384214055066  0.3493973924300297  0.3571567718808502
  0.9618584804272742  0.2499185997222555  0.5247816611327808
  0.4407679154613505  0.0342345422668969  0.7473060844220691
  0.5482971696381563  0.9694094637000318  0.2383293574759820
  0.7392829250036967  0.4612054878981677  0.0537240546552204
  0.2603463612610862  0.5237020564129201  0.9591993104766502
  0.0459348267924620  0.7419999697456030  0.4566557186349000
  0.4185672508548974  0.5734250000242213  0.7783521579970664
  0.9419067826068172  0.3177032702391621  0.0187927086329066
  0.7884568977421478  0.3773373722204996  0.6155181511385764
  0.0259699608453244  0.9454321374781035  0.3455794791341526
  0.5930843401107161  0.7740928608906635  0.3929603991665904
  0.3069805733759905  0.0060526568960498  0.9546519071167093
  0.6927262686599398  0.9719973512582614  0.0475324346958568
  0.2375891596732150  0.6187712964278956  0.3750519949524415
  0.0802256110611696  0.6944256071982531  0.9267803792405640
  0.3742206612929898  0.2285911320256719  0.6251040735647421
  0.9713493753126443  0.0466954736631468  0.6429266414724607
  0.6138530786655360  0.3769548332432893  0.2426785748522927
  0.9725324149522863  0.2996917265526370  0.3306384222707557
  0.4622033888643587  0.8955189827929952  0.6942344807932753
  0.3577491393398719  1.0024582469988845  0.2538758609525557
  0.6846803997877541  0.5149000208023398  0.9011390040310315
  0.2645829692157728  0.3516261418644999  0.9709644513444572
  0.8972177732517223  0.7048071821848862  0.4615978519865073
  0.1358260679571542  0.2526516897950352  0.5071357054037987
  0.6371163650931396 -0.0099462656812222  0.7355296285801459
  0.5346942894831578  0.1111608007364174  0.2792666383703190
  0.7309476019582709  0.6328235380773899  0.0522509685208862
  0.2752108163699576  0.5002026782687351  0.1229137930110892
  0.0141986960333415  0.6992175555592107  0.6546742742505506
 
             NaN             NaN             NaN
             NaN             NaN             NaN
             NaN             NaN             NaN
             NaN             NaN             NaN
             NaN             NaN             NaN
             NaN             NaN             NaN
             NaN             NaN             NaN
             NaN             NaN             NaN
             NaN             NaN             NaN
             NaN             NaN             NaN
             NaN             NaN             NaN
             NaN             NaN             NaN
             NaN             NaN             NaN
             NaN             NaN             NaN
             NaN             NaN             NaN
             NaN             NaN             NaN
             NaN             NaN             NaN
             NaN             NaN             NaN
             NaN             NaN             NaN
             NaN             NaN             NaN
             NaN             NaN             NaN
             NaN             NaN             NaN
             NaN             NaN             NaN
             NaN             NaN             NaN
             NaN             NaN             NaN
             NaN             NaN             NaN
             NaN             NaN             NaN
             NaN             NaN             NaN
             NaN             NaN             NaN
             NaN             NaN             NaN
             NaN             NaN             NaN
             NaN             NaN             NaN
             NaN             NaN             NaN
             NaN             NaN             NaN
             NaN             NaN             NaN
