Ca4 Co2 Si4 O14                         
   1.00000000000000     
     7.8362083793985864   -0.0000001760805405    0.0000001472148150
     0.0000000820575684    7.8360089404339455    0.0005867902812345
    -0.0000001915056716   -0.0002687701302336    4.9813177863183471
   Ca   Co   Si   O 
     4     2     4    14
Direct
  0.3322792072938014  0.1677260524554569  0.5016973560587772
  0.1677185909088550  0.6677134360736758  0.4983597657195347
  0.6677185832868631  0.8322865671076585  0.5016402092905992
  0.8322791988281679  0.3322739542388575  0.4983026669004005
  0.5000058001172505  0.5000110544749461  0.0000033254089686
  0.0000057870038717  0.9999889432679012  0.9999966814466958
  0.1406017928173640  0.3594059563523331  0.9324780237362376
  0.3593842463391823  0.8593904107331127  0.0675786728423518
  0.8593842211110001  0.6406096005603459  0.9324212839532038
  0.6406018192599348  0.1405940272037967  0.0675220148279507
  0.4999638145097052  0.0000282853865485  0.1827211641768045
  0.9999638880349906  0.4999716999572712  0.8172788327785341
  0.1416865724085028  0.3583082478486119  0.2531152103144194
  0.3582987805733779  0.8583076279089994  0.7469298717732897
  0.8582987648015745  0.6416923814468021  0.2530701345264248
  0.6416865803230820  0.1416917722936262  0.7468847750596694
  0.3134448785366999  0.4182069674610744  0.7778809978342807
  0.1865089004468032  0.9181143447379512  0.2221877710753191
  0.6865089373495010  0.5818856281811549  0.7778122246783852
  0.8134448323491128  0.0817930305193215  0.2221189968770361
  0.5819128958411781  0.3134845534867310  0.2221148941564124
  0.9181944916600031  0.8134588021668918  0.7778026494747436
  0.4181944997243789  0.6865411929363958  0.2221973636962744
  0.0819129164747920  0.1865154632005357  0.7778851133936868
 
  0.00000000E+00  0.00000000E+00  0.00000000E+00
  0.00000000E+00  0.00000000E+00  0.00000000E+00
  0.00000000E+00  0.00000000E+00  0.00000000E+00
  0.00000000E+00  0.00000000E+00  0.00000000E+00
  0.00000000E+00  0.00000000E+00  0.00000000E+00
  0.00000000E+00  0.00000000E+00  0.00000000E+00
  0.00000000E+00  0.00000000E+00  0.00000000E+00
  0.00000000E+00  0.00000000E+00  0.00000000E+00
  0.00000000E+00  0.00000000E+00  0.00000000E+00
  0.00000000E+00  0.00000000E+00  0.00000000E+00
  0.00000000E+00  0.00000000E+00  0.00000000E+00
  0.00000000E+00  0.00000000E+00  0.00000000E+00
  0.00000000E+00  0.00000000E+00  0.00000000E+00
  0.00000000E+00  0.00000000E+00  0.00000000E+00
  0.00000000E+00  0.00000000E+00  0.00000000E+00
  0.00000000E+00  0.00000000E+00  0.00000000E+00
  0.00000000E+00  0.00000000E+00  0.00000000E+00
  0.00000000E+00  0.00000000E+00  0.00000000E+00
  0.00000000E+00  0.00000000E+00  0.00000000E+00
  0.00000000E+00  0.00000000E+00  0.00000000E+00
  0.00000000E+00  0.00000000E+00  0.00000000E+00
  0.00000000E+00  0.00000000E+00  0.00000000E+00
  0.00000000E+00  0.00000000E+00  0.00000000E+00
  0.00000000E+00  0.00000000E+00  0.00000000E+00
