Fe2 P4
1.0
4.975000 0.000000 0.000000
0.000000 5.657000 0.000000
0.000000 0.000000 2.725000
Fe P
2 4
direct
0.500000 0.500000 0.500000 Fe0+
0.000000 0.000000 0.000000 Fe0+
0.660000 0.130000 0.500000 P0+
0.340000 0.870000 0.500000 P0+
0.160000 0.370000 0.000000 P0+
0.840000 0.630000 0.000000 P0+
