Mn4 S6 O24                              
   1.00000000000000     
     7.4174725718961190    0.1247879636294474    4.7298243483613964
     2.6186661972229337    6.9890023112486608    4.7218744094774454
     0.4263003985572782    0.1920306351869996    8.7500791243680069
   Mn   S    O 
     4     6    24
Direct
  0.6448265503804222  0.6459317039878911  0.6364799509819363
  0.1507894528141236  0.1500746519302538  0.1449914924122311
  0.8438973093354392  0.8455702304533546  0.8496571112993507
  0.3501832199963104  0.3488815993091237  0.3583861104951680
  0.9637049213333739  0.2376636060822506  0.5385604560985087
  0.4469052979692592  0.0547683948552518  0.7454531356699263
  0.5478501176375161  0.9397016087893348  0.2497682063962543
  0.7372882467423736  0.4726768895717726  0.0335288515442826
  0.2572988011345387  0.5223043311076125  0.9611313636615293
  0.0314463029680780  0.7574513185328087  0.4561047658048381
  0.3904831594087597  0.6158726684952427  0.7626223779080235
  0.9390576664568542  0.3513569188385262  0.0087744576197721
  0.7685271035999151  0.3591650769836647  0.6246047884371038
  0.9999552439534369  0.9650694698081566  0.3332655024250855
  0.6271028216721746  0.7441669194114269  0.3853826902579200
  0.2908444694995964  0.0322648094062927  0.9519346820733219
  0.7040160992153233  0.9625598310543495  0.0431621760816370
  0.2265397985906006  0.6355990678660532  0.3703696566648631
  0.0554921429045976  0.6434566960242165  0.9857928369231956
  0.3679058561118183  0.2501844262454398  0.6097181016087916
  0.9955070131051258  0.0300117065022647  0.6610882409864729
  0.6041897118843380  0.3788861202139699  0.2321755115937734
  0.9967416802191948  0.2758117751986191  0.3348875350290186
  0.4801746497050772  0.9037572945289796  0.6983433292739463
  0.3706045987322426  0.9492445741352782  0.2635792069215981
  0.6960123562643687  0.4972252917511426  0.8786775513757163
  0.3019979609841457  0.3303269593382439  0.9698706294320587
  0.8851648109815571  0.7085899055876865  0.4730966930073706
  0.1098693958618568  0.2866721020792227  0.5216248002886417
  0.6244584853079260  0.0450610748022982  0.7313144375431335
  0.5142841847138655  0.0905474359977774  0.2973234674585683
  0.6927134790775398  0.6645539463971701  0.0246624182833628
  0.2982897843199694  0.4974082500484656  0.1162924753747490
  0.9982773071183146  0.7195833446658497  0.6597749890678912
 
  0.00000000E+00  0.00000000E+00  0.00000000E+00
  0.00000000E+00  0.00000000E+00  0.00000000E+00
  0.00000000E+00  0.00000000E+00  0.00000000E+00
  0.00000000E+00  0.00000000E+00  0.00000000E+00
  0.00000000E+00  0.00000000E+00  0.00000000E+00
  0.00000000E+00  0.00000000E+00  0.00000000E+00
  0.00000000E+00  0.00000000E+00  0.00000000E+00
  0.00000000E+00  0.00000000E+00  0.00000000E+00
  0.00000000E+00  0.00000000E+00  0.00000000E+00
  0.00000000E+00  0.00000000E+00  0.00000000E+00
  0.00000000E+00  0.00000000E+00  0.00000000E+00
  0.00000000E+00  0.00000000E+00  0.00000000E+00
  0.00000000E+00  0.00000000E+00  0.00000000E+00
  0.00000000E+00  0.00000000E+00  0.00000000E+00
  0.00000000E+00  0.00000000E+00  0.00000000E+00
  0.00000000E+00  0.00000000E+00  0.00000000E+00
  0.00000000E+00  0.00000000E+00  0.00000000E+00
  0.00000000E+00  0.00000000E+00  0.00000000E+00
  0.00000000E+00  0.00000000E+00  0.00000000E+00
  0.00000000E+00  0.00000000E+00  0.00000000E+00
  0.00000000E+00  0.00000000E+00  0.00000000E+00
  0.00000000E+00  0.00000000E+00  0.00000000E+00
  0.00000000E+00  0.00000000E+00  0.00000000E+00
  0.00000000E+00  0.00000000E+00  0.00000000E+00
  0.00000000E+00  0.00000000E+00  0.00000000E+00
  0.00000000E+00  0.00000000E+00  0.00000000E+00
  0.00000000E+00  0.00000000E+00  0.00000000E+00
  0.00000000E+00  0.00000000E+00  0.00000000E+00
  0.00000000E+00  0.00000000E+00  0.00000000E+00
  0.00000000E+00  0.00000000E+00  0.00000000E+00
  0.00000000E+00  0.00000000E+00  0.00000000E+00
  0.00000000E+00  0.00000000E+00  0.00000000E+00
  0.00000000E+00  0.00000000E+00  0.00000000E+00
  0.00000000E+00  0.00000000E+00  0.00000000E+00
