Ca4 Co4 Si6 O24                         
   1.00000000000000     
     7.5412045953023483    0.1007471321871955    4.3325044513253790
     2.6087968851877301    7.0354654396944669    4.3387637470676905
     0.0764860926090395    0.0186795357362176    8.6855871340145843
   Ca   Co   Si   O 
     4     4     6    24
Direct
  0.4705649154794206  0.4991794085617340  0.5215676146057349
  0.3522605440181714  0.7570147500216239  0.0905062126135577
  0.8855299210403788  0.6211303096708589  0.2589825003569062
  0.6487966362772682  0.2381293725573569  0.8989299550802843
  0.6428772193206409  0.6408892496141506  0.6479974650584378
  0.1583004094666612  0.1401733824316806  0.1287948884597566
  0.8442850221007400  0.8553260997564317  0.8530065871732190
  0.3538121800347909  0.3536472866755193  0.3530835974947287
  0.9767012225095564  0.2249373773394782  0.5426632147757545
  0.4667125095551131  0.0454366094317966  0.7387971458629217
  0.5162692663740566  0.9566857360859743  0.2575934056768703
  0.7535333975613203  0.4707642809050798  0.0291084536969142
  0.2481057070504226  0.5185430619391398  0.9638255845343161
  0.0164384281112821  0.7632153949700612  0.4613838580039035
  0.4326715301583516  0.5494118989213426  0.7828321903405637
  0.9493057407301920  0.3128512157697221  0.0629597287331988
  0.7716044176958019  0.4063012268197714  0.5627054352952572
  0.0510923541770915  0.9418492264125343  0.2660668538078961
  0.5547657049551036  0.7624707064753850  0.4326381869852677
  0.2666263307613982  0.0684047149447897  0.9169045373969813
  0.7226045638423105  0.9266845578782996  0.0807913029723818
  0.2275633027444951  0.5855258264032159  0.4234834276344353
  0.0459589392705493  0.6756640837890528  0.9517294180294656
  0.4520507010683457  0.2293987421531148  0.5452685079102130
  0.9485976741541068  0.0475171078827907  0.7339038514839406
  0.5629946133125999  0.4493895784735290  0.2169255691676153
  0.0316278952886005  0.2409857562758068  0.3265254605600322
  0.5043747138800093  0.8409270348381148  0.7444168907707382
  0.3564316063289355  0.9525030207100116  0.2161955659496835
  0.7379686426289772  0.4677757332153555  0.8540718257403420
  0.2929162271788144  0.3024530754569702  0.9854041354835584
  0.8553215376454001  0.7150468879950945  0.4741426627856337
  0.1518309371159803  0.2697165269450785  0.5086565456360608
  0.6342975404918900  0.0504729509363898  0.7712049554149953
  0.4882985041801947  0.1617800187691168  0.2498212155379211
  0.7170245712833866  0.6855669224418505  0.0070718179870077
  0.2445808053092351  0.5230457531799954  0.1542149778762986
  0.9841037668984168  0.7721851133518498  0.6567244531072240
 
  0.00000000E+00  0.00000000E+00  0.00000000E+00
  0.00000000E+00  0.00000000E+00  0.00000000E+00
  0.00000000E+00  0.00000000E+00  0.00000000E+00
  0.00000000E+00  0.00000000E+00  0.00000000E+00
  0.00000000E+00  0.00000000E+00  0.00000000E+00
  0.00000000E+00  0.00000000E+00  0.00000000E+00
  0.00000000E+00  0.00000000E+00  0.00000000E+00
  0.00000000E+00  0.00000000E+00  0.00000000E+00
  0.00000000E+00  0.00000000E+00  0.00000000E+00
  0.00000000E+00  0.00000000E+00  0.00000000E+00
  0.00000000E+00  0.00000000E+00  0.00000000E+00
  0.00000000E+00  0.00000000E+00  0.00000000E+00
  0.00000000E+00  0.00000000E+00  0.00000000E+00
  0.00000000E+00  0.00000000E+00  0.00000000E+00
  0.00000000E+00  0.00000000E+00  0.00000000E+00
  0.00000000E+00  0.00000000E+00  0.00000000E+00
  0.00000000E+00  0.00000000E+00  0.00000000E+00
  0.00000000E+00  0.00000000E+00  0.00000000E+00
  0.00000000E+00  0.00000000E+00  0.00000000E+00
  0.00000000E+00  0.00000000E+00  0.00000000E+00
  0.00000000E+00  0.00000000E+00  0.00000000E+00
  0.00000000E+00  0.00000000E+00  0.00000000E+00
  0.00000000E+00  0.00000000E+00  0.00000000E+00
  0.00000000E+00  0.00000000E+00  0.00000000E+00
  0.00000000E+00  0.00000000E+00  0.00000000E+00
  0.00000000E+00  0.00000000E+00  0.00000000E+00
  0.00000000E+00  0.00000000E+00  0.00000000E+00
  0.00000000E+00  0.00000000E+00  0.00000000E+00
  0.00000000E+00  0.00000000E+00  0.00000000E+00
  0.00000000E+00  0.00000000E+00  0.00000000E+00
  0.00000000E+00  0.00000000E+00  0.00000000E+00
  0.00000000E+00  0.00000000E+00  0.00000000E+00
  0.00000000E+00  0.00000000E+00  0.00000000E+00
  0.00000000E+00  0.00000000E+00  0.00000000E+00
  0.00000000E+00  0.00000000E+00  0.00000000E+00
  0.00000000E+00  0.00000000E+00  0.00000000E+00
  0.00000000E+00  0.00000000E+00  0.00000000E+00
  0.00000000E+00  0.00000000E+00  0.00000000E+00
