Ni4 S8                                  
   1.00000000000000     
     5.5739712053664068    0.0000285354834184    0.0000031036899502
     0.0000285452486849    5.5746736046649650   -0.0000011321210762
     0.0000030735822552   -0.0000010949698310    5.5754699440973967
   Ni   S 
     4     8
Direct
  0.4999985477746372  0.5000028549722005  0.0000011524103320
  0.4999986773676264 -0.0000028026194226  0.5000007151013608
  0.9999985731171418  0.5000027277056213  0.4999988322559199
  0.9999985556914366 -0.0000025762115668 -0.0000008271180710
  0.1060457767624356  0.8939637945994797  0.3939823301782430
  0.8939561562704397  0.3939647100213621  0.1060183402267206
  0.3939530688831557  0.1060372448955988  0.8939827714142118
  0.6060489530082487  0.6060329329981069  0.6060166397439184
  0.8939556383511540  0.1060393848042215  0.6060165627791587
  0.1060452301662110  0.6060320251669853  0.8939806559954436
  0.6060483493067029  0.8939658875660987  0.1060183838589995
  0.3939524733008034  0.3939638161013502  0.3939844431537630
 
  0.00000000E+00  0.00000000E+00  0.00000000E+00
  0.00000000E+00  0.00000000E+00  0.00000000E+00
  0.00000000E+00  0.00000000E+00  0.00000000E+00
  0.00000000E+00  0.00000000E+00  0.00000000E+00
  0.00000000E+00  0.00000000E+00  0.00000000E+00
  0.00000000E+00  0.00000000E+00  0.00000000E+00
  0.00000000E+00  0.00000000E+00  0.00000000E+00
  0.00000000E+00  0.00000000E+00  0.00000000E+00
  0.00000000E+00  0.00000000E+00  0.00000000E+00
  0.00000000E+00  0.00000000E+00  0.00000000E+00
  0.00000000E+00  0.00000000E+00  0.00000000E+00
  0.00000000E+00  0.00000000E+00  0.00000000E+00
