Ca1 Ni4 S6 O24                          
   1.00000000000000     
     7.5819109999999998    0.2757770000000000    4.2141250000000001
     2.7772830000000002    6.9232639999999996    4.5146170000000003
     0.6498000000000000    0.2426780000000000    8.7423909999999996
   Ca   Ni   S    O 
     1     4     6    24
Direct
  0.2680346188297276  0.7957943593434812  0.5520747570333164
  0.6508032799093872  0.6484712084484787  0.6436319917232041
  0.1410974165863303  0.1578627705645823  0.1385160164967846
  0.8367117846702398  0.8373609706813616  0.8555319911683308
  0.3618698962938537  0.3416021593021087  0.3608652768309480
  0.9724885880679390  0.2469226909765150  0.5152813683325190
  0.4323417479790340  0.0336245277549559  0.7628976873658936
  0.5662028895228132  0.9713889883595819  0.2306944657186412
  0.7368680886240991  0.4584436516412284  0.0582911397241266
  0.2599238396013694  0.5180665483079437  0.9523110022948527
  0.0322071723438193  0.7461258460656337  0.4599522770417700
  0.4320144321740055  0.5518270485546297  0.7701186147955777
  0.9238913752891723  0.2944204173435135  0.0352133299342945
  0.7998532682007222  0.3882392752687811  0.5988665830712884
  0.0404307436638077  0.9468133129750927  0.3570443236645124
  0.5998778880018608  0.7697761195163553  0.3882172185785731
  0.2917206559751196  0.0075801298663474  0.9681701971086503
  0.7134315916630460  0.9716263115755598  0.0395200064466563
  0.2238490202018733  0.6137563885702719  0.3753029677402062
  0.0907753485921038  0.7027729951582954  0.9159866438161164
  0.3622201582041894  0.2378635138441303  0.6310466618499049
  0.9689097002894533  0.0431204969109434  0.6415574029968164
  0.5903794634989409  0.4035076968352871  0.2580344631985105
  0.9782162396074799  0.3013557890504720  0.3186123820143690
  0.4407889644320666  0.8944575437494342  0.7108510552017528
  0.3671668111331895  0.0215267252281108  0.2405931752933889
  0.6623620896820521  0.5274285506250357  0.9101501843968927
  0.2464695007924903  0.3579261633998471  0.9485051126989517
  0.8703835578820626  0.7447777460929088  0.4542068828324076
  0.1551081055092689  0.2319246091713996  0.5043037623195213
  0.6279772274610564 -0.0078129423057539  0.7460328697748926
  0.5633667203040337  0.1083520933660608  0.2782176390264477
  0.7499285196430762  0.6220710269413910  0.0584205809485954
  0.2866221265453497  0.4708389272603883  0.1224115258273766
  1.0100686425205909  0.6865272276818387  0.6656777974607274
 
             NaN             NaN             NaN
             NaN             NaN             NaN
             NaN             NaN             NaN
             NaN             NaN             NaN
             NaN             NaN             NaN
             NaN             NaN             NaN
             NaN             NaN             NaN
             NaN             NaN             NaN
             NaN             NaN             NaN
             NaN             NaN             NaN
             NaN             NaN             NaN
             NaN             NaN             NaN
             NaN             NaN             NaN
             NaN             NaN             NaN
             NaN             NaN             NaN
             NaN             NaN             NaN
             NaN             NaN             NaN
             NaN             NaN             NaN
             NaN             NaN             NaN
             NaN             NaN             NaN
             NaN             NaN             NaN
             NaN             NaN             NaN
             NaN             NaN             NaN
             NaN             NaN             NaN
             NaN             NaN             NaN
             NaN             NaN             NaN
             NaN             NaN             NaN
             NaN             NaN             NaN
             NaN             NaN             NaN
             NaN             NaN             NaN
             NaN             NaN             NaN
             NaN             NaN             NaN
             NaN             NaN             NaN
             NaN             NaN             NaN
             NaN             NaN             NaN
