Ca1 Ni4 S6 O24                          
   1.00000000000000     
     7.5819109999999998    0.2757770000000000    4.2141250000000001
     2.7772830000000002    6.9232639999999996    4.5146170000000003
     0.6498000000000000    0.2426780000000000    8.7423909999999996
   Ca   Ni   S    O 
     1     4     6    24
Direct
  0.2741660978757001  0.7818405304804663  0.5471511119981520
  0.6542168351404589  0.6419579764209429  0.6446436812581656
  0.1412072224100604  0.1565737904297513  0.1393534877112723
  0.8427246590764730  0.8358516183930873  0.8505305770758902
  0.3630536598195211  0.3441705017624090  0.3568551152224091
  0.9729163794737994  0.2443887000282053  0.5163740063147875
  0.4351756039001735  0.0342616750009802  0.7634560386259488
  0.5633508076672556  0.9672817947527016  0.2321387720618310
  0.7378008928076469  0.4622539006139035  0.0545887840669458
  0.2668446926245309  0.5126425502261236  0.9608045588097758
  0.0286514877567292  0.7465538623899132  0.4554764813049740
  0.4283340359961021  0.5590009539181616  0.7732049690723978
  0.9295324459136798  0.3031884049551126  0.0270284722985903
  0.7917333048875848  0.3769182307691842  0.6067004578760008
  0.0267026952003489  0.9512608178398612  0.3541029305310100
  0.6003336611697663  0.7679936598701391  0.3861736946168366
  0.2938387850004232  0.0082353114572838  0.9671096639320783
  0.7073903747871764  0.9721362653920038  0.0429284419812195
  0.2279456859355479  0.6180730640130604  0.3799247286613103
  0.0821748728270926  0.7053880764201368  0.9190112684352192
  0.3603532630493733  0.2425259990500211  0.6300039343884504
  0.9815489497654839  0.0348057650313237  0.6388975630331440
  0.5964885520331739  0.4010100771799736  0.2561266781546849
  0.9803864183271264  0.2987221525195904  0.3192124520169255
  0.4468798414132740  0.8945278045758754  0.7124087466097402
  0.3636194032201510  1.0176849569073017  0.2474743621447621
  0.6651467544630688  0.5261211255860483  0.9086238488505315
  0.2521615571196643  0.3545144131125973  0.9512027306275316
  0.8798001594763111  0.7304777942036865  0.4499466887115851
  0.1474912979984901  0.2432126875079151  0.5065128528747948
  0.6295821652641120  0.0021802851586943  0.7431083372309442
  0.5595850890170251  0.1071094881344209  0.2855735625107996
  0.7428179005218314  0.6316551262917020  0.0541228426301422
  0.2814032262299054  0.4798277434140261  0.1196644949565766
 -0.0011884745803839  0.6922842559529833  0.6667432523268346
 
             NaN             NaN             NaN
             NaN             NaN             NaN
             NaN             NaN             NaN
             NaN             NaN             NaN
             NaN             NaN             NaN
             NaN             NaN             NaN
             NaN             NaN             NaN
             NaN             NaN             NaN
             NaN             NaN             NaN
             NaN             NaN             NaN
             NaN             NaN             NaN
             NaN             NaN             NaN
             NaN             NaN             NaN
             NaN             NaN             NaN
             NaN             NaN             NaN
             NaN             NaN             NaN
             NaN             NaN             NaN
             NaN             NaN             NaN
             NaN             NaN             NaN
             NaN             NaN             NaN
             NaN             NaN             NaN
             NaN             NaN             NaN
             NaN             NaN             NaN
             NaN             NaN             NaN
             NaN             NaN             NaN
             NaN             NaN             NaN
             NaN             NaN             NaN
             NaN             NaN             NaN
             NaN             NaN             NaN
             NaN             NaN             NaN
             NaN             NaN             NaN
             NaN             NaN             NaN
             NaN             NaN             NaN
             NaN             NaN             NaN
             NaN             NaN             NaN
