Calcium-alpha                           
   1.00000000000000     
     5.5636574640363392   -0.0000274550534888    0.0000177878576896
    -0.0000274548104408    5.5636629742161903   -0.0000014024767967
     0.0000177905280020   -0.0000014066145447    5.5636654436708719
   Ca
     4
Direct
 -0.0000004174344202  0.0000005484847265  0.0000007870939192
  0.0000003325717305  0.5000005012962133  0.4999999152392969
  0.4999998194400112 -0.0000005773913825  0.4999999580673606
  0.5000002654226785  0.4999995276104426 -0.0000006604005767
 
  0.00000000E+00  0.00000000E+00  0.00000000E+00
  0.00000000E+00  0.00000000E+00  0.00000000E+00
  0.00000000E+00  0.00000000E+00  0.00000000E+00
  0.00000000E+00  0.00000000E+00  0.00000000E+00
