Co4 P8
1.0
5.042724 0.000000 -2.320460
0.000000 5.549000 0.000000
0.000000 0.000000 5.614000
Co P
4 8
direct
0.270790 0.498760 0.785850 Co0+
0.729210 0.998760 0.714150 Co0+
0.729210 0.501240 0.214150 Co0+
0.270790 0.001240 0.285850 Co0+
0.338300 0.127870 0.681960 P0+
0.661700 0.627870 0.818040 P0+
0.661700 0.872130 0.318040 P0+
0.338300 0.372130 0.181960 P0+
0.158990 0.873340 0.864780 P0+
0.841010 0.373340 0.635220 P0+
0.841010 0.126660 0.135220 P0+
0.158990 0.626660 0.364780 P0+
