V2 S2                                   
   1.00000000000000     
     3.6265103073847493   -0.0000400886966375   -0.0000003391030605
    -1.8132898503962775    3.1406303463157190    0.0000002035505965
    -0.0000008657634494    0.0000001427726841    6.0566508192172943
   V    S 
     2     2
Direct
  0.9999999226210544  0.9999999329322964  0.4999999905446113
 -0.0000000029775112 -0.0000000241899404  0.0000000016947575
  0.3333312079381435  0.6666686540191358  0.2499999902718230
  0.6666688724183132  0.3333314372385081  0.7500000174888154
 
  0.00000000E+00  0.00000000E+00  0.00000000E+00
  0.00000000E+00  0.00000000E+00  0.00000000E+00
  0.00000000E+00  0.00000000E+00  0.00000000E+00
  0.00000000E+00  0.00000000E+00  0.00000000E+00
