Ca2 Ti4 O8                              
   1.00000000000000     
     0.0001286788494974   -0.0004105419718672    3.1089245869452315
     5.0303708324856791    0.0184824407453566   -1.5541995965120681
     0.0396616704404618   10.0891663955414881   -0.0011182972362109
   Ca   Ti   O 
     2     4     8
Direct
  0.3840790581106621  0.7667010632192129  0.2474764171508838
  0.6152257867084423  0.2308717319364919  0.7523554638538903
  0.1284052274935726  0.2611834995020669  0.4321436403874765
  0.8705379316511818  0.7401781386322457  0.5659473289611030
  0.1334954250828189  0.2662085283789552  0.0706492327999090
  0.8679214085522181  0.7342321206890069  0.9287223995589874
  0.4983822069053122  0.9984533390286296  0.5022396001869791
  0.5004932782009338  0.0000041125120500  0.0009283210310299
  0.0546211198748612  0.1080562873092552  0.2518473676868902
  0.9454018173153067  0.8911397369680497  0.7499710194181899
  0.2331307553220324  0.4666596655522551  0.6074069451626084
  0.7680711428359677  0.5377398694008017  0.3908471774992668
  0.2299263549661953  0.4591860230792882  0.8926553248368881
  0.7703084869804949  0.5393858837917050  0.1068097614658904
 
  0.00000000E+00  0.00000000E+00  0.00000000E+00
  0.00000000E+00  0.00000000E+00  0.00000000E+00
  0.00000000E+00  0.00000000E+00  0.00000000E+00
  0.00000000E+00  0.00000000E+00  0.00000000E+00
  0.00000000E+00  0.00000000E+00  0.00000000E+00
  0.00000000E+00  0.00000000E+00  0.00000000E+00
  0.00000000E+00  0.00000000E+00  0.00000000E+00
  0.00000000E+00  0.00000000E+00  0.00000000E+00
  0.00000000E+00  0.00000000E+00  0.00000000E+00
  0.00000000E+00  0.00000000E+00  0.00000000E+00
  0.00000000E+00  0.00000000E+00  0.00000000E+00
  0.00000000E+00  0.00000000E+00  0.00000000E+00
  0.00000000E+00  0.00000000E+00  0.00000000E+00
  0.00000000E+00  0.00000000E+00  0.00000000E+00
