Chromium                                
   1.00000000000000     
     2.8224378479882248    0.0000000146998215   -0.0000000038714702
     0.0000000143117249    2.8223823225712623   -0.0000000056112486
    -0.0000000037750990   -0.0000000052838127    2.8222670502289833
   Cr
     2
Direct
  0.0000000293780771  0.0000000001087732 -0.0000000009600168
  0.4999999706219229  0.4999999998912269  0.5000000009600168
 
  0.00000000E+00  0.00000000E+00  0.00000000E+00
  0.00000000E+00  0.00000000E+00  0.00000000E+00
