Ca6 P6                                  
   1.00000000000000     
     7.6459124232761946   -0.0001566776640317    0.0000001341769483
    -3.8230919022802281    6.6214869453182361    0.0000000270481799
     0.0000001089650713    0.0000000847049073    5.7147824424039442
   Ca   P 
     6     6
Direct
  0.6910100205878749  0.6910098572656551  0.0000000473554849
  0.3089785053291010  0.9999922970655106  0.9999999563405879
  0.9999924427710880  0.3089783126141867  0.9999999326209306
  0.3571635526711319  0.3571641064017186  0.4999999905179351
  0.6428417798195483  0.9999882094290626  0.4999999890972902
  0.9999875518479939  0.6428414172365109  0.4999999813464129
  0.0000046889247187  0.0000045333867575  0.6962993393909258
  0.0000048864893856  0.0000047321461807  0.3037005909841781
  0.6666719794780391  0.3333366393486372  0.7990766847876358
  0.6666717082532685  0.3333363610243509  0.2009233959534313
  0.3333365825175676  0.6666719032682593  0.7990767618707153
  0.3333363013102897  0.6666716308131768  0.2009233297344650
 
  0.00000000E+00  0.00000000E+00  0.00000000E+00
  0.00000000E+00  0.00000000E+00  0.00000000E+00
  0.00000000E+00  0.00000000E+00  0.00000000E+00
  0.00000000E+00  0.00000000E+00  0.00000000E+00
  0.00000000E+00  0.00000000E+00  0.00000000E+00
  0.00000000E+00  0.00000000E+00  0.00000000E+00
  0.00000000E+00  0.00000000E+00  0.00000000E+00
  0.00000000E+00  0.00000000E+00  0.00000000E+00
  0.00000000E+00  0.00000000E+00  0.00000000E+00
  0.00000000E+00  0.00000000E+00  0.00000000E+00
  0.00000000E+00  0.00000000E+00  0.00000000E+00
  0.00000000E+00  0.00000000E+00  0.00000000E+00
