Ca4 V12 O28                             
   1.00000000000000     
    10.5127111894212355    0.0000018639325553    0.0000006485157368
     0.0000018849554688   10.3369172183893987    0.0000003966366983
     0.0000003293758346    0.0000001916398714    5.2847870186463890
   Ca   V    O 
     4    12    28
Direct
  0.5817978418626737  0.2499999808150122  0.1953536039600081
  0.0817975171336300  0.2499999615642992  0.3046463469070133
  0.4182151621371162  0.7499999918057156  0.8046113485860502
  0.9182151063732036  0.7500000030247804  0.6953885329078204
  0.7910650207359566  0.2499999807736941  0.7039286435018610
  0.2910652937423421  0.2499998697256558  0.7960715198567314
  0.2089278193557647  0.7500000095276889  0.2959939381913301
  0.7089307171541535  0.7499999689669821  0.2040059648455070
  0.6856086034511080  0.5208949741590203  0.7124595703585825
  0.1856054648326833  0.9791041202201001  0.7875408498440706
  0.3143801034979319  0.0208783236290415  0.2875266259875104
  0.8143801974046951  0.4791216925660393  0.2124730277997458
  0.3143804251413016  0.4791215095344725  0.2875265302937180
  0.8143800188842789  0.0208781705215912  0.2124731077842554
  0.6856084321205884  0.9791048911978919  0.7124595324809775
  0.1856056271667086  0.5208961163011239  0.7875411717637562
  0.9471667533509276  0.2499999758754967  0.6898248978310733
  0.4471666911119172  0.2499999794274785  0.8101749454838441
  0.0528455635903313  0.7499999730560916  0.3100807052458876
  0.5528441908702462  0.7499999606764973  0.1899192301339170
  0.5368113812240338  0.5664707822379071  0.7313687697761253
  0.0368138866929399  0.9335298877131422  0.7686313290537967
  0.4631950660840971  0.0664619997432325  0.2684040003139287
  0.9631949788056602  0.4335379250712705  0.2315959813964241
  0.4631948050555579  0.4335380074879609  0.2684040978535265
  0.9631951405575236  0.0664620766658501  0.2315959356642594
  0.5368115234646424  0.9335292006303959  0.7313687901106576
  0.0368150265718441  0.5664712969818453  0.7686325904982638
  0.7217509439510863  0.3802749141392496  0.4713896495981160
  0.2217510139388779  0.1197250763767528  0.0286103409736427
  0.2782226668308923  0.8802740156579389  0.5285849111089149
  0.7782223622774183  0.6197258520657982  0.9714148102687119
  0.2782227897540679  0.6197259354366693  0.5285847676287716
  0.7782223698903579  0.8802740762482983  0.9714148581933486
  0.7217509602184577  0.1197250406734724  0.4713896076565689
  0.2217510395556417  0.3802747684605094  0.0286104781835803
  0.7275630917214357  0.3801244579566969  0.9461801009722421
  0.2275631483833536  0.1198756551150808  0.5538196038604895
  0.2724588264369032  0.8801213040896698  0.0537525039341133
  0.7724586247983254  0.6198787043140754  0.4462473298092178
  0.2724589548837031  0.6198786337959064  0.0537526141217413
  0.7724586145675190  0.8801212420835398  0.4462472650097595
  0.7275630922833329  0.1198755030318281  0.9461801501841052
  0.2275631421347626  0.3801241906542145  0.5538194200660413
 
  0.00000000E+00  0.00000000E+00  0.00000000E+00
  0.00000000E+00  0.00000000E+00  0.00000000E+00
  0.00000000E+00  0.00000000E+00  0.00000000E+00
  0.00000000E+00  0.00000000E+00  0.00000000E+00
  0.00000000E+00  0.00000000E+00  0.00000000E+00
  0.00000000E+00  0.00000000E+00  0.00000000E+00
  0.00000000E+00  0.00000000E+00  0.00000000E+00
  0.00000000E+00  0.00000000E+00  0.00000000E+00
  0.00000000E+00  0.00000000E+00  0.00000000E+00
  0.00000000E+00  0.00000000E+00  0.00000000E+00
  0.00000000E+00  0.00000000E+00  0.00000000E+00
  0.00000000E+00  0.00000000E+00  0.00000000E+00
  0.00000000E+00  0.00000000E+00  0.00000000E+00
  0.00000000E+00  0.00000000E+00  0.00000000E+00
  0.00000000E+00  0.00000000E+00  0.00000000E+00
  0.00000000E+00  0.00000000E+00  0.00000000E+00
  0.00000000E+00  0.00000000E+00  0.00000000E+00
  0.00000000E+00  0.00000000E+00  0.00000000E+00
  0.00000000E+00  0.00000000E+00  0.00000000E+00
  0.00000000E+00  0.00000000E+00  0.00000000E+00
  0.00000000E+00  0.00000000E+00  0.00000000E+00
  0.00000000E+00  0.00000000E+00  0.00000000E+00
  0.00000000E+00  0.00000000E+00  0.00000000E+00
  0.00000000E+00  0.00000000E+00  0.00000000E+00
  0.00000000E+00  0.00000000E+00  0.00000000E+00
  0.00000000E+00  0.00000000E+00  0.00000000E+00
  0.00000000E+00  0.00000000E+00  0.00000000E+00
  0.00000000E+00  0.00000000E+00  0.00000000E+00
  0.00000000E+00  0.00000000E+00  0.00000000E+00
  0.00000000E+00  0.00000000E+00  0.00000000E+00
  0.00000000E+00  0.00000000E+00  0.00000000E+00
  0.00000000E+00  0.00000000E+00  0.00000000E+00
  0.00000000E+00  0.00000000E+00  0.00000000E+00
  0.00000000E+00  0.00000000E+00  0.00000000E+00
  0.00000000E+00  0.00000000E+00  0.00000000E+00
  0.00000000E+00  0.00000000E+00  0.00000000E+00
  0.00000000E+00  0.00000000E+00  0.00000000E+00
  0.00000000E+00  0.00000000E+00  0.00000000E+00
  0.00000000E+00  0.00000000E+00  0.00000000E+00
  0.00000000E+00  0.00000000E+00  0.00000000E+00
  0.00000000E+00  0.00000000E+00  0.00000000E+00
  0.00000000E+00  0.00000000E+00  0.00000000E+00
  0.00000000E+00  0.00000000E+00  0.00000000E+00
  0.00000000E+00  0.00000000E+00  0.00000000E+00
