Ca1 Ni4 P6 O24                          
   1.00000000000000     
     2.6689986924766282    6.7054625714415987    4.5013812472421808
     0.4554592483667099    0.3227208588745603    8.4868670038133214
     7.2109396452111651    0.3089204077119089    4.5035764277964736
   Ca   Ni   P    O 
     1     4     6    24
Direct
  0.4974017803971756  0.4971808915458492  0.4971625530918243
  0.6410863993684448  0.6409754288261305  0.6411093431212653
  0.1472911163521132  0.1467825018528932  0.1477167161367008
  0.8476056135676876  0.8483819885662025  0.8473232075401510
  0.3536308094505420  0.3536625580626971  0.3534066752408539
  0.2410388308743818  0.5303676624512622  0.9686588628446376
  0.0261944848521005  0.7540505233692363  0.4645093042686472
  0.9685106099238788  0.2411193148204673  0.5305713162988025
  0.4645300989921410  0.0262384812601223  0.7541462597455438
  0.5304610563579937  0.9684709394680969  0.2410913775087804
  0.7542027313024843  0.4646646373811078  0.0260159720266281
  0.6206226220417849  0.7475224941912253  0.3848401803977399
  0.3182912913903380  0.9940434234393629  0.9769116552078283
  0.3849558113563016  0.6201396315990290  0.7476603760070801
  0.9769462357658466  0.3184587748457342  0.9943085027408477
  0.7475989465217937  0.3849064263379330  0.6203829745673974
  0.9940047713855211  0.9767577778579313  0.3178495073416646
  0.0010494068863501  0.0185432232945531  0.6776347573820451
  0.6098299059026991  0.3749353219959380  0.2469014848728312
  0.6771115136706750  0.0010480593673608  0.0184482355461393
  0.2469727129300649  0.6097754665874540  0.3748278737993189
  0.0184751279416436  0.6770616003246727  0.0006990402884872
  0.3745020339419499  0.2469677671914645  0.6098670245048122
  0.2922118654859180  0.3217772040479297  0.9723407282625686
  0.8757918612583505  0.6973312002067221  0.4821825248208588
  0.9711877990128361  0.2916691926979810  0.3227887455986694
  0.4821288701969987  0.8755068469924477  0.6979033812392961
  0.3224786832274192  0.9706354170985373  0.2924886492011980
  0.6979877710023314  0.4815095733471964  0.8756793294227134
  0.2993880865565213  0.5130270329779407  0.1177142741265944
  0.0236827276811305  0.7034345663986888  0.6723115288313384
  0.1177522167654416  0.2999734649294030  0.5121151496811355
  0.6725094696196738  0.0243347398116280  0.7025575851411715
  0.5123221454359678  0.1179629667517591  0.2993707181529029
  0.7026445925835192  0.6731829001030820  0.0229041850415446
 
  0.00000000E+00  0.00000000E+00  0.00000000E+00
  0.00000000E+00  0.00000000E+00  0.00000000E+00
  0.00000000E+00  0.00000000E+00  0.00000000E+00
  0.00000000E+00  0.00000000E+00  0.00000000E+00
  0.00000000E+00  0.00000000E+00  0.00000000E+00
  0.00000000E+00  0.00000000E+00  0.00000000E+00
  0.00000000E+00  0.00000000E+00  0.00000000E+00
  0.00000000E+00  0.00000000E+00  0.00000000E+00
  0.00000000E+00  0.00000000E+00  0.00000000E+00
  0.00000000E+00  0.00000000E+00  0.00000000E+00
  0.00000000E+00  0.00000000E+00  0.00000000E+00
  0.00000000E+00  0.00000000E+00  0.00000000E+00
  0.00000000E+00  0.00000000E+00  0.00000000E+00
  0.00000000E+00  0.00000000E+00  0.00000000E+00
  0.00000000E+00  0.00000000E+00  0.00000000E+00
  0.00000000E+00  0.00000000E+00  0.00000000E+00
  0.00000000E+00  0.00000000E+00  0.00000000E+00
  0.00000000E+00  0.00000000E+00  0.00000000E+00
  0.00000000E+00  0.00000000E+00  0.00000000E+00
  0.00000000E+00  0.00000000E+00  0.00000000E+00
  0.00000000E+00  0.00000000E+00  0.00000000E+00
  0.00000000E+00  0.00000000E+00  0.00000000E+00
  0.00000000E+00  0.00000000E+00  0.00000000E+00
  0.00000000E+00  0.00000000E+00  0.00000000E+00
  0.00000000E+00  0.00000000E+00  0.00000000E+00
  0.00000000E+00  0.00000000E+00  0.00000000E+00
  0.00000000E+00  0.00000000E+00  0.00000000E+00
  0.00000000E+00  0.00000000E+00  0.00000000E+00
  0.00000000E+00  0.00000000E+00  0.00000000E+00
  0.00000000E+00  0.00000000E+00  0.00000000E+00
  0.00000000E+00  0.00000000E+00  0.00000000E+00
  0.00000000E+00  0.00000000E+00  0.00000000E+00
  0.00000000E+00  0.00000000E+00  0.00000000E+00
  0.00000000E+00  0.00000000E+00  0.00000000E+00
  0.00000000E+00  0.00000000E+00  0.00000000E+00
