Ca4 Co8 O16                             
   1.00000000000000     
     8.8582012711367621   -0.0076139348968286   -0.0081990248518878
    -0.0029938796192249    2.9095533512004579   -0.0073836756660992
    -0.0131692937120797   -0.0298463565299552   10.3299129939329148
   Ca   Co   O 
     4     8    16
Direct
  0.2597099289976157  0.2493568604456797  0.8377537118962053
  0.7614849560993733  0.2529536950479070  0.6608251495627115
  0.7396534102772137  0.7421231885865538  0.1633716568521280
  0.2402426644306104  0.7490431223079099  0.3372994238740716
  0.9173774440325033  0.2489838304889318  0.4013679161087893
  0.4155930559195795  0.2460654744254498  0.0994716367332273
  0.0833904139840129  0.7510172268307898  0.5981925593730963
  0.5839844572361201  0.7587067986537264  0.9000144721002030
  0.9432020837735706  0.2493329158103350  0.8883257906089952
  0.4420445209517325  0.2566304030722648  0.6110096830440881
  0.0574776459029707  0.7496494605230382  0.1117052841317090
  0.5576664243333482  0.7501416638206777  0.3884546289892796
  0.6989746875690415  0.2487117786061432  0.3457567610861858
  0.1984592871228656  0.2497943682688089  0.1547678768407437
  0.3011272277120796  0.7552090212091969  0.6543388835931623
  0.8036380743305358  0.7495500397526982  0.8452061458891791
  0.6138215674482694  0.2350037691330371  0.0259073288647187
  0.1151408669639267  0.2499051993213115  0.4768450136406841
  0.3823038741529317  0.7448749248643836  0.9792171643019856
  0.8857187013605312  0.7502836959795829  0.5225896363499132
  0.0299356980750787  0.2512128281413268  0.7118131566631973
  0.5285214142376233  0.2639410930584702  0.7855336368981227
  0.9708203196246004  0.7482133242564117  0.2878771679759211
  0.4693325558830708  0.7472623872941568  0.2129509269896843
  0.9202227163036270  0.2479337241515083  0.0730827402302197
  0.4205116690450765  0.2502064267169288  0.4264899009979786
  0.0798957179307962  0.7499448057238425  0.9266818771658265
  0.5797486163012735  0.7539479735089500  0.5731498692379873
 
  0.00000000E+00  0.00000000E+00  0.00000000E+00
  0.00000000E+00  0.00000000E+00  0.00000000E+00
  0.00000000E+00  0.00000000E+00  0.00000000E+00
  0.00000000E+00  0.00000000E+00  0.00000000E+00
  0.00000000E+00  0.00000000E+00  0.00000000E+00
  0.00000000E+00  0.00000000E+00  0.00000000E+00
  0.00000000E+00  0.00000000E+00  0.00000000E+00
  0.00000000E+00  0.00000000E+00  0.00000000E+00
  0.00000000E+00  0.00000000E+00  0.00000000E+00
  0.00000000E+00  0.00000000E+00  0.00000000E+00
  0.00000000E+00  0.00000000E+00  0.00000000E+00
  0.00000000E+00  0.00000000E+00  0.00000000E+00
  0.00000000E+00  0.00000000E+00  0.00000000E+00
  0.00000000E+00  0.00000000E+00  0.00000000E+00
  0.00000000E+00  0.00000000E+00  0.00000000E+00
  0.00000000E+00  0.00000000E+00  0.00000000E+00
  0.00000000E+00  0.00000000E+00  0.00000000E+00
  0.00000000E+00  0.00000000E+00  0.00000000E+00
  0.00000000E+00  0.00000000E+00  0.00000000E+00
  0.00000000E+00  0.00000000E+00  0.00000000E+00
  0.00000000E+00  0.00000000E+00  0.00000000E+00
  0.00000000E+00  0.00000000E+00  0.00000000E+00
  0.00000000E+00  0.00000000E+00  0.00000000E+00
  0.00000000E+00  0.00000000E+00  0.00000000E+00
  0.00000000E+00  0.00000000E+00  0.00000000E+00
  0.00000000E+00  0.00000000E+00  0.00000000E+00
  0.00000000E+00  0.00000000E+00  0.00000000E+00
  0.00000000E+00  0.00000000E+00  0.00000000E+00
