Ca4 Cr4 Si6 O24                         
   1.00000000000000     
     0.1561628976269906   -0.1424147817829454    8.7604652450583469
     7.5605030404617048   -0.1416067856413834    4.4269661412495402
     2.4698364534662178    7.0423158318888142    4.2225135764696802
   Ca   Cr   Si   O 
     4     4     6    24
Direct
  0.4977002742398306  0.4984686821999856  0.4975702932591833
  0.9985138859647656  0.9976737487709291  0.9976043681268353
  0.0935701242639741  0.4018719088370711  0.7478497759631507
  0.9018942184756586  0.5936748454751466  0.2478462376385303
  0.6422554945632892  0.6473567235418355  0.6392258811736500
  0.1473894610821943  0.1423326404272904  0.1392072529337655
  0.8491672967877485  0.8533456742184217  0.8560161450089644
  0.3534210268988381  0.3491968423536551  0.3559501487425011
  0.5369654944650960  0.9593483072346896  0.2473814388880986
  0.7359320740043650  0.4673354874169720  0.0448814020199227
  0.2600849391875941  0.5285567145640307  0.9500975236293401
  0.0285413946972293  0.7600656641933663  0.4502354044007321
  0.9674006582008794  0.2359769781285777  0.5447506611799621
  0.4592965794609091  0.0369229027931817  0.7474241758650396
  0.7715078601713123  0.4236772625573795  0.5519603088496495
  0.0574030892486574  0.9359532118996204  0.2702353120533378
  0.5665282934923076  0.7566927749238193  0.4116150362034477
  0.2567007471186697  0.0663991105290213  0.9117637378514645
  0.4359339188126187  0.5574376870366861  0.7699585704256776
  0.9236383706159252  0.2714547678981121  0.0519523908786409
  0.0723417531704187  0.7243798956741309  0.9428718058044498
  0.4294920308692971  0.2395650628155864  0.5832900253936293
  0.9388645283746457  0.0599176870183318  0.7247140200303583
  0.5599759357183806  0.4387868122073670  0.2249125556386810
  0.7396112848870069  0.9296031463728373  0.0832096534110085
  0.2243571113942641  0.5723024293526291  0.4428386302141876
  0.3646762952474181  0.0045230576644012  0.1881722988616902
  0.7376816104070855  0.5141549901624263  0.8340935470704917
  0.2129483237973006  0.3668531601586750  0.9605196371966053
  0.8667412854466841  0.7129898018013293  0.4607511828634273
  0.0141864799055821  0.2381097220192269  0.3337904024483423
  0.5041986849719000  0.8646924007554695  0.6881686609178209
  0.4913334000095110  0.1317471135384474  0.3067450157487169
  0.7832603349470735  0.6289804541834640  0.0343679470677045
  0.2580514684899113  0.4822279240105135  0.1608367356804006
  0.9822830640576686  0.7577051202264188  0.6611015085118154
  0.1290439510942318  0.2832773409289754  0.5342028439902048
  0.6318072554598084  0.9911419461100370  0.8066874640585944
 
  0.00000000E+00  0.00000000E+00  0.00000000E+00
  0.00000000E+00  0.00000000E+00  0.00000000E+00
  0.00000000E+00  0.00000000E+00  0.00000000E+00
  0.00000000E+00  0.00000000E+00  0.00000000E+00
  0.00000000E+00  0.00000000E+00  0.00000000E+00
  0.00000000E+00  0.00000000E+00  0.00000000E+00
  0.00000000E+00  0.00000000E+00  0.00000000E+00
  0.00000000E+00  0.00000000E+00  0.00000000E+00
  0.00000000E+00  0.00000000E+00  0.00000000E+00
  0.00000000E+00  0.00000000E+00  0.00000000E+00
  0.00000000E+00  0.00000000E+00  0.00000000E+00
  0.00000000E+00  0.00000000E+00  0.00000000E+00
  0.00000000E+00  0.00000000E+00  0.00000000E+00
  0.00000000E+00  0.00000000E+00  0.00000000E+00
  0.00000000E+00  0.00000000E+00  0.00000000E+00
  0.00000000E+00  0.00000000E+00  0.00000000E+00
  0.00000000E+00  0.00000000E+00  0.00000000E+00
  0.00000000E+00  0.00000000E+00  0.00000000E+00
  0.00000000E+00  0.00000000E+00  0.00000000E+00
  0.00000000E+00  0.00000000E+00  0.00000000E+00
  0.00000000E+00  0.00000000E+00  0.00000000E+00
  0.00000000E+00  0.00000000E+00  0.00000000E+00
  0.00000000E+00  0.00000000E+00  0.00000000E+00
  0.00000000E+00  0.00000000E+00  0.00000000E+00
  0.00000000E+00  0.00000000E+00  0.00000000E+00
  0.00000000E+00  0.00000000E+00  0.00000000E+00
  0.00000000E+00  0.00000000E+00  0.00000000E+00
  0.00000000E+00  0.00000000E+00  0.00000000E+00
  0.00000000E+00  0.00000000E+00  0.00000000E+00
  0.00000000E+00  0.00000000E+00  0.00000000E+00
  0.00000000E+00  0.00000000E+00  0.00000000E+00
  0.00000000E+00  0.00000000E+00  0.00000000E+00
  0.00000000E+00  0.00000000E+00  0.00000000E+00
  0.00000000E+00  0.00000000E+00  0.00000000E+00
  0.00000000E+00  0.00000000E+00  0.00000000E+00
  0.00000000E+00  0.00000000E+00  0.00000000E+00
  0.00000000E+00  0.00000000E+00  0.00000000E+00
  0.00000000E+00  0.00000000E+00  0.00000000E+00
