Cr6 P6 O24                              
   1.00000000000000     
     0.0000000125448130    0.0000032074082618    6.3024672863845792
     5.1999850820280109    6.4609738593187735    3.1512125450197135
    -5.1999850598517723    6.4609738545777100    3.1512125242916338
   Cr   P    O 
     6     6    24
Direct
  0.9999999990089705  0.5000061412310473  0.4999938591959321
  0.4999999980356975  0.0000044977901368  0.9999955032631291
  0.8838113534758065  0.6157551787348154  0.1161439346835635
  0.1161886473335372  0.8838560643260109  0.3842448216392782
  0.8838324254200387  0.1161523253761061  0.6157495763007432
  0.1161675726264235  0.3842504223545617  0.8838476763930032
  0.1677616290070247  0.2499533551558386  0.2499093664024841
  0.8322383734126504  0.7500906257988120  0.7500466455936703
  0.6766943729006911  0.8233529972972775  0.3234468174317868
  0.3233056228907714  0.6765531834433816  0.1766470019118174
  0.6766793936834006  0.3234281176419387  0.8233707506804393
  0.3233206113168663  0.1766292530063041  0.6765718822827580
  0.0234659583956898  0.3727649584438169  0.1270444693232307
  0.9765340383865677  0.8729555338167998  0.6272350399464131
  0.9764489639252574  0.6272435507986600  0.8729406103810575
  0.0235510440945461  0.1270593869369208  0.3727564510290549
  0.7940290710961904  0.6291959100096634  0.3521210592643200
  0.2059709303056394  0.6478789402783391  0.3708040924141400
  0.7245194394872101  0.1293200519280902  0.8518792555771952
  0.2754805634721293  0.1481207443288994  0.8706799458924763
  0.2060220412482678  0.3707618488772937  0.6478921361045877
  0.7939779557735491  0.3521078650283158  0.6292381502966862
  0.2754603406907208  0.8706373635046134  0.1481362998958318
  0.7245396565975568  0.8518637001460689  0.1293626365554985
  0.8087473966501832  0.9116185129609633  0.3601365261966833
  0.1912526060163628  0.6398634717559446  0.0883814886833960
  0.4196980080279644  0.4118748668849861  0.8601994754580602
  0.5803019892200751  0.1398005239513367  0.5881251306135766
  0.1912248218005956  0.0883780641898326  0.6399048491086958
  0.8087751754599779  0.3600951507217829  0.9116219340126079
  0.5802910477647458  0.5881183565152099  0.1398422611012293
  0.4197089541858432  0.8601577396302886  0.4118816441093145
  0.1931370969975887  0.3494490066788174  0.3493740876451525
  0.8068629014741902  0.6506259142696038  0.6505509958641085
  0.6076809851634835  0.8494781553637054  0.8494017826060940
  0.3923190146538005  0.1505982208238166  0.1505218421419769
 
  0.00000000E+00  0.00000000E+00  0.00000000E+00
  0.00000000E+00  0.00000000E+00  0.00000000E+00
  0.00000000E+00  0.00000000E+00  0.00000000E+00
  0.00000000E+00  0.00000000E+00  0.00000000E+00
  0.00000000E+00  0.00000000E+00  0.00000000E+00
  0.00000000E+00  0.00000000E+00  0.00000000E+00
  0.00000000E+00  0.00000000E+00  0.00000000E+00
  0.00000000E+00  0.00000000E+00  0.00000000E+00
  0.00000000E+00  0.00000000E+00  0.00000000E+00
  0.00000000E+00  0.00000000E+00  0.00000000E+00
  0.00000000E+00  0.00000000E+00  0.00000000E+00
  0.00000000E+00  0.00000000E+00  0.00000000E+00
  0.00000000E+00  0.00000000E+00  0.00000000E+00
  0.00000000E+00  0.00000000E+00  0.00000000E+00
  0.00000000E+00  0.00000000E+00  0.00000000E+00
  0.00000000E+00  0.00000000E+00  0.00000000E+00
  0.00000000E+00  0.00000000E+00  0.00000000E+00
  0.00000000E+00  0.00000000E+00  0.00000000E+00
  0.00000000E+00  0.00000000E+00  0.00000000E+00
  0.00000000E+00  0.00000000E+00  0.00000000E+00
  0.00000000E+00  0.00000000E+00  0.00000000E+00
  0.00000000E+00  0.00000000E+00  0.00000000E+00
  0.00000000E+00  0.00000000E+00  0.00000000E+00
  0.00000000E+00  0.00000000E+00  0.00000000E+00
  0.00000000E+00  0.00000000E+00  0.00000000E+00
  0.00000000E+00  0.00000000E+00  0.00000000E+00
  0.00000000E+00  0.00000000E+00  0.00000000E+00
  0.00000000E+00  0.00000000E+00  0.00000000E+00
  0.00000000E+00  0.00000000E+00  0.00000000E+00
  0.00000000E+00  0.00000000E+00  0.00000000E+00
  0.00000000E+00  0.00000000E+00  0.00000000E+00
  0.00000000E+00  0.00000000E+00  0.00000000E+00
  0.00000000E+00  0.00000000E+00  0.00000000E+00
  0.00000000E+00  0.00000000E+00  0.00000000E+00
  0.00000000E+00  0.00000000E+00  0.00000000E+00
  0.00000000E+00  0.00000000E+00  0.00000000E+00
