Cr6 P6 O24                              
   1.00000000000000     
     0.0000000125448130    0.0000032074082618    6.3024672863845792
     5.1999850820280109    6.4609738593187735    3.1512125450197135
    -5.1999850598517723    6.4609738545777100    3.1512125242916338
   Cr   P    O 
     6     6    24
Direct
 -0.0000000009910306  0.5000061412310504  0.4999938591959343
  0.4999999980356990  0.0000044977901336 -0.0000044967368713
  0.8838113534758032  0.6157551787348187  0.1161439346835650
  0.1161886473335387  0.8838560643260115  0.3842448216392779
  0.8838324254200357  0.1161523253761089  0.6157495763007408
  0.1161675726264207  0.3842504223545627  0.8838476763930055
  0.1677616290070233  0.2499533551558420  0.2499093664024817
  0.8322383734126526  0.7500906257988115  0.7500466455936722
  0.6766943729006916  0.8233529972972768  0.3234468174317882
  0.3233056228907683  0.6765531834433783  0.1766470019118184
  0.6766793936834022  0.3234281176419396  0.8233707506804425
  0.3233206113168687  0.1766292530063061  0.6765718822827579
  0.0234659583956879  0.3727649584438140  0.1270444693232287
  0.9765340383865667  0.8729555338168012  0.6272350399464138
  0.9764489639252583  0.6272435507986588  0.8729406103810606
  0.0235510440945478  0.1270593869369216  0.3727564510290577
  0.7940290710961880  0.6291959100096652  0.3521210592643220
  0.2059709303056385  0.6478789402783404  0.3708040924141399
  0.7245194394872110  0.1293200519280897  0.8518792555771950
  0.2754805634721269  0.1481207443289017  0.8706799458924771
  0.2060220412482645  0.3707618488772909  0.6478921361045861
  0.7939779557735471  0.3521078650283155  0.6292381502966828
  0.2754603406907241  0.8706373635046100  0.1481362998958296
  0.7245396565975587  0.8518637001460670  0.1293626365555006
  0.8087473966501861  0.9116185129609639  0.3601365261966833
  0.1912526060163614  0.6398634717559418  0.0883814886833931
  0.4196980080279645  0.4118748668849839  0.8601994754580603
  0.5803019892200760  0.1398005239513380  0.5881251306135777
  0.1912248218005939  0.0883780641898318  0.6399048491086979
  0.8087751754599747  0.3600951507217810  0.9116219340126089
  0.5802910477647474  0.5881183565152096  0.1398422611012272
  0.4197089541858399  0.8601577396302882  0.4118816441093112
  0.1931370969975856  0.3494490066788188  0.3493740876451555
  0.8068629014741909  0.6506259142696033  0.6505509958641084
  0.6076809851634851  0.8494781553637062  0.8494017826060918
  0.3923190146538007  0.1505982208238173  0.1505218421419778
 
  0.00000000E+00  0.00000000E+00  0.00000000E+00
  0.00000000E+00  0.00000000E+00  0.00000000E+00
  0.00000000E+00  0.00000000E+00  0.00000000E+00
  0.00000000E+00  0.00000000E+00  0.00000000E+00
  0.00000000E+00  0.00000000E+00  0.00000000E+00
  0.00000000E+00  0.00000000E+00  0.00000000E+00
  0.00000000E+00  0.00000000E+00  0.00000000E+00
  0.00000000E+00  0.00000000E+00  0.00000000E+00
  0.00000000E+00  0.00000000E+00  0.00000000E+00
  0.00000000E+00  0.00000000E+00  0.00000000E+00
  0.00000000E+00  0.00000000E+00  0.00000000E+00
  0.00000000E+00  0.00000000E+00  0.00000000E+00
  0.00000000E+00  0.00000000E+00  0.00000000E+00
  0.00000000E+00  0.00000000E+00  0.00000000E+00
  0.00000000E+00  0.00000000E+00  0.00000000E+00
  0.00000000E+00  0.00000000E+00  0.00000000E+00
  0.00000000E+00  0.00000000E+00  0.00000000E+00
  0.00000000E+00  0.00000000E+00  0.00000000E+00
  0.00000000E+00  0.00000000E+00  0.00000000E+00
  0.00000000E+00  0.00000000E+00  0.00000000E+00
  0.00000000E+00  0.00000000E+00  0.00000000E+00
  0.00000000E+00  0.00000000E+00  0.00000000E+00
  0.00000000E+00  0.00000000E+00  0.00000000E+00
  0.00000000E+00  0.00000000E+00  0.00000000E+00
  0.00000000E+00  0.00000000E+00  0.00000000E+00
  0.00000000E+00  0.00000000E+00  0.00000000E+00
  0.00000000E+00  0.00000000E+00  0.00000000E+00
  0.00000000E+00  0.00000000E+00  0.00000000E+00
  0.00000000E+00  0.00000000E+00  0.00000000E+00
  0.00000000E+00  0.00000000E+00  0.00000000E+00
  0.00000000E+00  0.00000000E+00  0.00000000E+00
  0.00000000E+00  0.00000000E+00  0.00000000E+00
  0.00000000E+00  0.00000000E+00  0.00000000E+00
  0.00000000E+00  0.00000000E+00  0.00000000E+00
  0.00000000E+00  0.00000000E+00  0.00000000E+00
  0.00000000E+00  0.00000000E+00  0.00000000E+00
