Ca2 Co4 S6 O24
1.0
7.619908 0.051616 4.473660
2.635014 7.036647 4.510575
0.184508 0.006208 8.816057
Ca Co S O
2 4 6 24
direct
0.438784 0.588559 0.520410 Ca
0.986918 1.003434 1.003130 Ca
0.647717 0.645584 0.648171 Co
0.142954 0.148666 0.144121 Co
0.846811 0.849134 0.847656 Co
0.355030 0.348952 0.349389 Co
0.958217 0.247750 0.540120 S
0.445381 0.042223 0.749189 S
0.547269 0.954049 0.243864 S
0.745954 0.451492 0.045384 S
0.248786 0.543041 0.952666 S
0.039950 0.748834 0.452733 S
0.410524 0.562074 0.770958 O
0.898584 0.264496 0.078100 O
0.789295 0.415617 0.554653 O
0.071328 0.902312 0.267117 O
0.566200 0.773875 0.405970 O
0.259496 0.071935 0.904421 O
0.726386 0.927748 0.083156 O
0.208975 0.579863 0.442458 O
0.090841 0.729669 0.927493 O
0.437419 0.220356 0.586497 O
0.929874 0.090550 0.725221 O
0.580127 0.444996 0.220285 O
0.984503 0.196765 0.393579 O
0.471004 0.892184 0.700675 O
0.390282 0.992690 0.202043 O
0.704707 0.477806 0.892768 O
0.195937 0.394885 0.983910 O
0.879507 0.717484 0.488102 O
0.119443 0.277777 0.506282 O
0.593182 -0.004711 0.808838 O
0.524700 0.105566 0.285794 O
0.805703 0.597781 0.006205 O
0.294733 0.509035 0.105260 O
0.013399 0.801348 0.599458 O
