Ca1 Mn4 P6 O24                          
   1.00000000000000     
     2.7804820000000001    6.9299039999999996    4.1874500000000001
     0.7396930000000000    0.4115300000000000    8.5068990000000007
     7.4907149999999998    0.2915670000000000    4.0882490000000002
   Ca   Mn   P    O 
     1     4     6    24
Direct
  0.3717283696351448  0.6474372578440556  0.4945445922395302
  0.6390401116372956  0.6438540433543769  0.6466984159224571
  0.1388378192551479  0.1570271802362896  0.1403485242697210
  0.8500442549994749  0.8515131810857326  0.8529729229833904
  0.3562414660861529  0.3474055793421126  0.3643875274737681
  0.2458287694325773  0.5272495960618169  0.9680582531526416
  0.0115595521540582  0.7557046920121666  0.4684042024608499
  0.9679767999940299  0.2492736963954669  0.5238324048332984
  0.4546984518992445  0.0324486264564141  0.7560843647040278
  0.5466267797857099  0.9755487719533439  0.2378658695468351
  0.7393716543616927  0.4733622138872647  0.0468223626874364
  0.6031462464267040  0.7605591952901577  0.3944604079197639
  0.3008055605060254  0.0112713395801360  0.9673864459746887
  0.4040922787699826  0.5945154490773740  0.7637696572160810
  0.9434397524614410  0.3038702373693686  0.0272197183480469
  0.7662683229550381  0.3942804041769403  0.6119604194286570
  0.0145017637672606  0.9646435580060738  0.3336410825215828
  0.9873725957578375  0.0303236438462939  0.6559265303275272
  0.5810322129172805  0.4153825006446779  0.2521159067510317
  0.7005463266276709  0.9923329428811224  0.0290504671554925
  0.2153139126771604  0.6061942687159222  0.3867506429632422
  0.0470388190588742  0.6988673650854272  0.9705792156540100
  0.3863914909085067  0.2479655662232767  0.6077546533997583
  0.2602422305277768  0.3446526717991572  0.9586578970618792
  0.8521293171159066  0.7225448552182148  0.4780574224959039
  0.9847427049874394  0.2991967151987249  0.3132776346512971
  0.4744702373550339  0.8832558495030473  0.6948284112939433
  0.3430646946139037  0.9990225890539158  0.2605755216329421
  0.6867101561486983  0.5174783435656077  0.8792031810320023
  0.3030346817971128  0.4785153920954031  0.1313926639139004
  0.0070720793092960  0.7034373471719791  0.6763433326368771
  0.1368684482779818  0.2749695740247476  0.5132358551210016
  0.6573722076522925  1.0022203606132309  0.7368286207320072
  0.5319364438086043  0.1206977650198699  0.2988920885427485
  0.7309065855551019  0.6613388627796375  0.0397360877001824
 
             NaN             NaN             NaN
             NaN             NaN             NaN
             NaN             NaN             NaN
             NaN             NaN             NaN
             NaN             NaN             NaN
             NaN             NaN             NaN
             NaN             NaN             NaN
             NaN             NaN             NaN
             NaN             NaN             NaN
             NaN             NaN             NaN
             NaN             NaN             NaN
             NaN             NaN             NaN
             NaN             NaN             NaN
             NaN             NaN             NaN
             NaN             NaN             NaN
             NaN             NaN             NaN
             NaN             NaN             NaN
             NaN             NaN             NaN
             NaN             NaN             NaN
             NaN             NaN             NaN
             NaN             NaN             NaN
             NaN             NaN             NaN
             NaN             NaN             NaN
             NaN             NaN             NaN
             NaN             NaN             NaN
             NaN             NaN             NaN
             NaN             NaN             NaN
             NaN             NaN             NaN
             NaN             NaN             NaN
             NaN             NaN             NaN
             NaN             NaN             NaN
             NaN             NaN             NaN
             NaN             NaN             NaN
             NaN             NaN             NaN
             NaN             NaN             NaN
