Ca1 Mn4 P6 O24
1.0
2.780482 6.929904 4.187450
0.739693 0.411530 8.506899
7.490715 0.291567 4.088249
Ca Mn P O
1 4 6 24
direct
0.404678 0.629094 0.523802 Ca
0.642498 0.647261 0.641591 Mn
0.140536 0.150607 0.141361 Mn
0.849123 0.845967 0.854968 Mn
0.355909 0.347856 0.355969 Mn
0.250013 0.526504 0.959435 P
0.025710 0.748306 0.469718 P
0.966622 0.249462 0.524091 P
0.455982 0.029183 0.754162 P
0.540891 0.969547 0.238741 P
0.744288 0.466613 0.040355 P
0.601394 0.759592 0.394887 O
0.300027 0.015079 0.961289 O
0.407313 0.590572 0.754417 O
0.945122 0.300091 0.028964 O
0.777149 0.406255 0.599066 O
0.032092 0.951478 0.325268 O
0.968349 0.041629 0.671812 O
0.584624 0.408860 0.241309 O
0.696346 0.981738 0.032684 O
0.215008 0.589054 0.398164 O
0.051114 0.695296 0.963185 O
0.393458 0.238548 0.600620 O
0.258774 0.341999 0.964603 O
0.852994 0.730400 0.490166 O
0.976552 0.287884 0.321422 O
0.472882 0.876417 0.699191 O
0.340019 0.995140 0.259295 O
0.694780 0.508507 0.873921 O
0.299788 0.487874 0.123382 O
0.018239 0.709281 0.672624 O
0.141265 0.264907 0.504199 O
0.655307 -0.002219 0.739081 O
0.522689 0.121845 0.293654 O
0.737348 0.651856 0.032676 O
