Ca2 Fe4 S6 O24                          
   1.00000000000000     
     7.6115670000000000    0.0050580000000000    4.3773970000000002
     2.5306549999999999    7.1159800000000004    4.3539190000000003
     0.0548060000000000   -0.0002760000000000    8.7789269999999995
   Ca   Fe   S    O 
     2     4     6    24
Direct
  0.4822024877531168  0.5224765457203189  0.4959636310378877
  0.9880008708498993  0.0148594175647881  0.9928250370921453
  0.6462465852885175  0.6421929411049047  0.6606641283985385
  0.1496962044891982  0.1472562830420535  0.1496650028900219
  0.8398865866842711  0.8602922063689843  0.8455322148793764
  0.3413261485697987  0.3590456489060732  0.3472267970863475
  0.9451144356505916  0.2544986174193261  0.5457507210786282
  0.4459809312737543  0.0565855682150876  0.7510140000041922
  0.5418121764155081  0.9533381040565461  0.2507439705184903
  0.7456216846697276  0.4509055031295589  0.0463923936114601
  0.2408848050729910  0.5588179198121154  0.9537711171470166
  0.0395867538881692  0.7542373552052679  0.4487573763061030
  0.4064779864062612  0.5615499524702189  0.7785852338144450
  0.8937072383219171  0.2680942145459899  0.0899839388710691
  0.7686167214648884  0.4164811681884010  0.5473641551715638
  0.0636227909502307  0.9039982260023129  0.2636824089767747
  0.5533392602231058  0.7876658175644546  0.4222881498089168
  0.2586528718465317  0.0905268523019977  0.8993075816482352
  0.7266959812753636  0.9206142767661069  0.1016088694946467
  0.2172461484793167  0.5919925904517639  0.4368987693835397
  0.0911864791481192  0.7427173211682789  0.9167181839507018
  0.4388365168925160  0.2262965705198721  0.5814197745543618
  0.9100237628416894  0.1044696277834721  0.7307363263438003
  0.5810373308604712  0.4587244272539462  0.2195364512550733
  0.9957253408258481  0.1893730665095190  0.3979323475291505
  0.4824035404139607  0.8927455126887340  0.7166922930198663
  0.3983643573874052  0.9661956104445997  0.2020470690231436
  0.7003515828140076  0.4552837452297173  0.9042811943319227
  0.1826510106363922  0.4077286908591220  0.9986527291140792
  0.8874054826015851  0.7003955295580071  0.4892045890115069
  0.0912884968022401  0.3046148522951926  0.5253925346633910
  0.5864910833074078  0.0331991225980436  0.8103459709357432
  0.5024060770774049  0.1226688682252770  0.2787815674053249
  0.8085524584162811  0.6051438357026483  0.9826681628337854
  0.2861049883436514  0.5396930439955672  0.1023490645532298
  0.0096506649297890  0.8162022907255672  0.5904808912205489
 
             NaN             NaN             NaN
             NaN             NaN             NaN
             NaN             NaN             NaN
             NaN             NaN             NaN
             NaN             NaN             NaN
             NaN             NaN             NaN
             NaN             NaN             NaN
             NaN             NaN             NaN
             NaN             NaN             NaN
             NaN             NaN             NaN
             NaN             NaN             NaN
             NaN             NaN             NaN
             NaN             NaN             NaN
             NaN             NaN             NaN
             NaN             NaN             NaN
             NaN             NaN             NaN
             NaN             NaN             NaN
             NaN             NaN             NaN
             NaN             NaN             NaN
             NaN             NaN             NaN
             NaN             NaN             NaN
             NaN             NaN             NaN
             NaN             NaN             NaN
             NaN             NaN             NaN
             NaN             NaN             NaN
             NaN             NaN             NaN
             NaN             NaN             NaN
             NaN             NaN             NaN
             NaN             NaN             NaN
             NaN             NaN             NaN
             NaN             NaN             NaN
             NaN             NaN             NaN
             NaN             NaN             NaN
             NaN             NaN             NaN
             NaN             NaN             NaN
             NaN             NaN             NaN
