Ca2 Fe4 S6 O24                          
   1.00000000000000     
     7.6115670000000000    0.0050580000000000    4.3773970000000002
     2.5306549999999999    7.1159800000000004    4.3539190000000003
     0.0548060000000000   -0.0002760000000000    8.7789269999999995
   Ca   Fe   S    O 
     2     4     6    24
Direct
  0.4801976311794875  0.5240357506391745  0.4979356868301665
  0.9882176221509114  1.0126977549674812 -0.0063053160722869
  0.6433888181864655  0.6463236588043517  0.6622554424173763
  0.1476685657233056  0.1464000471471667  0.1519877582060796
  0.8439066426887580  0.8573551797001463  0.8431707252198426
  0.3438407574853665  0.3578922379863333  0.3466130499453969
  0.9436873625581877  0.2550019428027889  0.5461990661570769
  0.4426022680956009  0.0578224736960608  0.7502301438479351
  0.5430531801545633  0.9538659991600285  0.2499416211337529
  0.7464986988488956  0.4518518901126859  0.0457670666451501
  0.2419540231584860  0.5571385012616875  0.9547973493202578
  0.0413092110001960  0.7533337000095363  0.4484178569259976
  0.4049535605108819  0.5646565564243895  0.7773745833184064
  0.8941836725168096  0.2680587120056260  0.0871456142539397
  0.7669448101967438  0.4173597308385836  0.5543308689182627
  0.0631275158820606  0.9045941271110840  0.2637866268596147
  0.5571131765517723  0.7842632671534551  0.4178660767913269
  0.2572078807329766  0.0885442670270940  0.9012020546082357
  0.7255376350907683  0.9228256233261931  0.0974617581972637
  0.2190496087690388  0.5914280443972195  0.4339634413838832
  0.0902268465078814  0.7396404388256392  0.9216191627115681
  0.4352068539892451  0.2323312680904202  0.5848216464222105
  0.9120270224168421  0.1021734162853580  0.7298165814290583
  0.5838959278982142  0.4576591835523028  0.2202668011425554
  0.9855217742898900  0.1945466037479057  0.3978695313151763
  0.4737935885681920  0.9013284764416715  0.7066308044487557
  0.3945632752428961  0.9722068166679620  0.2040660965925258
  0.6979400885629475  0.4626230734500077  0.9028852047715471
  0.1867205675493341  0.4043125544918321  0.9979296775305685
  0.8885332987629552  0.7002321609438958  0.4906666984306199
  0.0933913391104230  0.3022620677966218  0.5218490633645330
  0.5858889548140184  0.0242574034220021  0.8118499813923947
  0.5086021166320842  0.1177256716167686  0.2838131906164723
  0.8115950978279431  0.6041946709141274 -0.0150476316503218
  0.2890505306954050  0.5361238981105464  0.1028043282756821
  0.0156033639864473  0.8141303609582330  0.5893560781628115
 
             NaN             NaN             NaN
             NaN             NaN             NaN
             NaN             NaN             NaN
             NaN             NaN             NaN
             NaN             NaN             NaN
             NaN             NaN             NaN
             NaN             NaN             NaN
             NaN             NaN             NaN
             NaN             NaN             NaN
             NaN             NaN             NaN
             NaN             NaN             NaN
             NaN             NaN             NaN
             NaN             NaN             NaN
             NaN             NaN             NaN
             NaN             NaN             NaN
             NaN             NaN             NaN
             NaN             NaN             NaN
             NaN             NaN             NaN
             NaN             NaN             NaN
             NaN             NaN             NaN
             NaN             NaN             NaN
             NaN             NaN             NaN
             NaN             NaN             NaN
             NaN             NaN             NaN
             NaN             NaN             NaN
             NaN             NaN             NaN
             NaN             NaN             NaN
             NaN             NaN             NaN
             NaN             NaN             NaN
             NaN             NaN             NaN
             NaN             NaN             NaN
             NaN             NaN             NaN
             NaN             NaN             NaN
             NaN             NaN             NaN
             NaN             NaN             NaN
             NaN             NaN             NaN
