Ca4 V4 P6 O24                           
   1.00000000000000     
     2.5705450000000001    7.2614979999999996    4.3704989999999997
    -0.0055390000000000    0.0519890000000000    8.7775090000000002
     7.6640040000000003    0.0540900000000000    4.2755440000000000
   Ca   V    P    O 
     4     4     6    24
Direct
  0.3961587153677253  0.6344693901171592  0.5119506230629297
  0.9636003576577560  0.0062255129905619  0.0138439559203231
  0.3986059248203003  0.7475132441235361  0.0777374959091160
  0.1014287306616635  0.3915797107782578  0.7531043154917751
  0.6557031314834785  0.6318692540506804  0.6452102716987976
  0.1522119756442425  0.1421992098437030  0.1538819181135627
  0.8482066616070405  0.8653312088270290  0.8479610891002820
  0.3446188892846625  0.3477903254165567  0.3536525893875475
  0.2400946741459321  0.5547580954489818  0.9549138923134664
  0.0393756866166721  0.7543917998820611  0.4462833381055295
  0.9523562531973805  0.2523565471941195  0.5535500063564542
  0.4560989045957421  0.0456495794951227  0.7440523780347290
  0.5404524291562309  0.9483407420587019  0.2483798014419128
  0.7514056060411266  0.4513037937090406  0.0450143925257429
  0.5756757301634229  0.7847364094501456  0.4187592626718499
  0.2606246824196715  0.0712508588078214  0.9081682665616253
  0.4142334279592987  0.5685685500333902  0.7812772902475388
  0.9185680842124422  0.2733840802507854  0.0731882456014276
  0.7710143742331769  0.4169952520779395  0.5593122742667487
  0.0749676505805812  0.9054228298285991  0.2580860713070185
  0.9237648236399240  0.0927183625176450  0.7373870321512106
  0.5727893414056771  0.4402719312029995  0.2094185667950580
  0.7202350575666152  0.9360523176576049  0.0849900598097733
  0.2266822928941459  0.5864688515218689  0.4225089813408365
  0.0820336439668536  0.7400094285612414  0.9239010368718531
  0.4220060373427889  0.2264588958309353  0.5869654441160107
  0.1955784791279934  0.3969500380739550  0.9740916892284606
  0.8805805300139571  0.7055338942306613  0.4885246582493564
  0.0200976103530247  0.1906353373298227  0.3906476247705395
  0.4907661063731824  0.8644289864649529  0.7281766700050875
  0.3939363172217911  0.9213653108713901  0.2217350318139194
  0.7480059959711155  0.4661239279946767  0.8645316642968935
  0.2752618167240199  0.5316269624917633  0.1198111186656026
  0.0314148929898495  0.7820309055117516  0.6096014017350391
  0.1022755457371645  0.3038844651274873  0.5435920568665478
  0.6018605146890351  0.0147463163821896  0.8075698905597398
  0.4665744484430552  0.1298521851036624  0.2778410224310349
  0.7750163694136422  0.6271669776991012  0.0100728376775258
 
             NaN             NaN             NaN
             NaN             NaN             NaN
             NaN             NaN             NaN
             NaN             NaN             NaN
             NaN             NaN             NaN
             NaN             NaN             NaN
             NaN             NaN             NaN
             NaN             NaN             NaN
             NaN             NaN             NaN
             NaN             NaN             NaN
             NaN             NaN             NaN
             NaN             NaN             NaN
             NaN             NaN             NaN
             NaN             NaN             NaN
             NaN             NaN             NaN
             NaN             NaN             NaN
             NaN             NaN             NaN
             NaN             NaN             NaN
             NaN             NaN             NaN
             NaN             NaN             NaN
             NaN             NaN             NaN
             NaN             NaN             NaN
             NaN             NaN             NaN
             NaN             NaN             NaN
             NaN             NaN             NaN
             NaN             NaN             NaN
             NaN             NaN             NaN
             NaN             NaN             NaN
             NaN             NaN             NaN
             NaN             NaN             NaN
             NaN             NaN             NaN
             NaN             NaN             NaN
             NaN             NaN             NaN
             NaN             NaN             NaN
             NaN             NaN             NaN
             NaN             NaN             NaN
             NaN             NaN             NaN
             NaN             NaN             NaN
