Ni3 S2                                  
   1.00000000000000     
     3.9993193071837259    0.0041736537269166    0.0407267298142229
     0.0404042478408527    3.9991693615126001    0.0407410532373614
     0.0041598255358572    0.0041263254468244    3.9988623987729932
   Ni   S 
     3     2
Direct
  0.2460814029750074  0.7539152083211086  0.4999966249161721
  0.7539811088755561  0.5000337352814439  0.2460763619920306
  0.4999684497350833  0.2460201408994205  0.7539275860742354
  0.7455648798826849  0.7455965589577943  0.7456038793515231
  0.2544041585316681  0.2544343565402397  0.2543955476660387
 
  0.00000000E+00  0.00000000E+00  0.00000000E+00
  0.00000000E+00  0.00000000E+00  0.00000000E+00
  0.00000000E+00  0.00000000E+00  0.00000000E+00
  0.00000000E+00  0.00000000E+00  0.00000000E+00
  0.00000000E+00  0.00000000E+00  0.00000000E+00
