Ca1 Fe4 P6 O24                          
   1.00000000000000     
     2.7172010000000002    6.9058099999999998    4.6577840000000004
     0.4105000000000000    0.2992950000000000    8.7452819999999996
     7.3898370000000000    0.3092620000000000    4.6489399999999996
   Ca   Fe   P    O 
     1     4     6    24
Direct
  0.4084718388505429  0.5881582420477532  0.5105558919282924
  0.6468598024104625  0.6425285557255040  0.6493553457002701
  0.1460741817707399  0.1566256680972289  0.1485055325204005
  0.8421671307841599  0.8504729743479719  0.8458115597325579
  0.3508311389332501  0.3497191690613141  0.3620222353685265
  0.2337258426234408  0.5332355103066123  0.9744567966212878
  0.0187167229012347  0.7706045961234292  0.4518917963174954
  0.9655484656022424  0.2380399791441344  0.5366964127529634
  0.4514467857503872  0.0410742214773232  0.7606738815484115
  0.5397772400770439  0.9698430951060237  0.2349113021587131
  0.7510584289271223  0.4668435329875351  0.0435120170552974
  0.5992060200087801  0.7630194752335457  0.3899793437946584
  0.3065734306196967  0.0158621679582075  0.9798307794823279
  0.3892006599663296  0.6038523909479306  0.7732089540880749
  0.9703347075947550  0.3245372070315873  0.0170607932571431
  0.7600384098768731  0.3850615332529781  0.6096224738922760
  0.0031300199793109  0.9882924578865192  0.3228329019860512
  0.9845026888933210  0.0174692063129770  0.6649633112548170
  0.6033777756692015  0.3983933275763933  0.2515463978479030
  0.6904526945400048  0.9849136137052664  0.0194187670335296
  0.2278134935747898  0.6274209871731981  0.3753338718906303
  0.0244020422760977  0.6795990020646013  0.9718276854225921
  0.3796945024511437  0.2541691927299878  0.6199050892082755
  0.2813615726032795  0.3288429121746906  0.9776076061841857
  0.8630238824833146  0.7381973446713342  0.4618888098981790
  0.9925891248237634  0.2881158627753826  0.3206766612740455
  0.4761507804938265  0.8845508906542893  0.7164213932782245
  0.3341638097223207  0.9827752283767608  0.2735918178904351
  0.7196572818532078  0.4894099581721327  0.8782887681930691
  0.2517945494039956  0.5112084472653101  0.1460443421082781
  0.0044181017955805  0.7157728117959608  0.6650160591446808
  0.1308135752449795  0.2553394368878050  0.5301683588098425
  0.6596297404549695  0.0166709329134620  0.7268494986832373
  0.5224596125558223  0.1324915473278105  0.2646129886456617
  0.7116769737953242  0.6748248686126315  0.0238297678995620
 
             NaN             NaN             NaN
             NaN             NaN             NaN
             NaN             NaN             NaN
             NaN             NaN             NaN
             NaN             NaN             NaN
             NaN             NaN             NaN
             NaN             NaN             NaN
             NaN             NaN             NaN
             NaN             NaN             NaN
             NaN             NaN             NaN
             NaN             NaN             NaN
             NaN             NaN             NaN
             NaN             NaN             NaN
             NaN             NaN             NaN
             NaN             NaN             NaN
             NaN             NaN             NaN
             NaN             NaN             NaN
             NaN             NaN             NaN
             NaN             NaN             NaN
             NaN             NaN             NaN
             NaN             NaN             NaN
             NaN             NaN             NaN
             NaN             NaN             NaN
             NaN             NaN             NaN
             NaN             NaN             NaN
             NaN             NaN             NaN
             NaN             NaN             NaN
             NaN             NaN             NaN
             NaN             NaN             NaN
             NaN             NaN             NaN
             NaN             NaN             NaN
             NaN             NaN             NaN
             NaN             NaN             NaN
             NaN             NaN             NaN
             NaN             NaN             NaN
