Ca1 Fe4 P6 O24
1.0
2.717201 6.905810 4.657784
0.410500 0.299295 8.745282
7.389837 0.309262 4.648940
Ca Fe P O
1 4 6 24
direct
0.436313 0.593283 0.530720 Ca
0.648018 0.641661 0.642793 Fe
0.148399 0.149924 0.148759 Fe
0.843170 0.843613 0.846210 Fe
0.353323 0.352048 0.352379 Fe
0.237041 0.534081 0.964835 P
0.034415 0.758300 0.457164 P
0.959881 0.240178 0.533504 P
0.455526 0.031676 0.759242 P
0.537097 0.965279 0.234806 P
0.759742 0.455247 0.034878 P
0.606213 0.758922 0.383472 O
0.319186 0.008591 0.979474 O
0.385375 0.604937 0.758603 O
0.978174 0.313795 0.010005 O
0.755170 0.386757 0.605529 O
0.011906 0.977547 0.319536 O
0.975203 0.023376 0.673448 O
0.615571 0.382514 0.243632 O
0.676270 0.982914 0.017172 O
0.242364 0.614856 0.382282 O
0.023724 0.682452 0.976584 O
0.381806 0.240833 0.616358 O
0.277359 0.328163 0.979799 O
0.873344 0.724730 0.476876 O
0.979899 0.284619 0.322652 O
0.469989 0.874531 0.722854 O
0.325378 0.985200 0.281582 O
0.722945 0.479052 0.873493 O
0.266845 0.514981 0.128095 O
0.017192 0.714348 0.667117 O
0.123844 0.264287 0.519421 O
0.667690 0.005653 0.715428 O
0.520571 0.125380 0.267558 O
0.720724 0.662278 0.017832 O
