Ca5 Cr4 P6 O24                          
   1.00000000000000     
     2.6372652080670562    8.1663808603966004    4.5541742200450415
    -0.2135616945993100    0.4887899182045325    8.5118225883544572
     7.4797527226208231    0.4801897163823581    4.0577037337801967
   Ca   Cr   P    O 
     5     4     6    24
Direct
  0.5827041430270032  0.4010899989907722  0.5139527195287419
  0.9130917492774722  0.9830579916570520  0.0943814879672803
  0.3824230070625079  0.7247191277310231  0.0672718213509622
  0.1148347551871667  0.4285942958446095  0.7704749421446571
  0.2483983236163096  0.8762334301391534  0.6196467837424117
  0.6672998977223265  0.6598139938681290  0.6153060534805778
  0.1656889284879860  0.1495990183508084  0.1668858724115017
  0.8289384299218217  0.8809805249507456  0.8364923731853446
  0.3280203220123684  0.3296052747994701  0.3461678148080023
  0.2482038910724012  0.5314967823139113  0.9643141484989819
  0.0467678858674204  0.7701164806855487  0.4200013061784124
  0.9614530846069324  0.2413740683492788  0.5953473739162281
  0.4485450428156457  0.0760462968892036  0.7257530766008071
  0.5341330557014000  0.9009206348322711  0.2540605631271842
  0.7487352703718777  0.4802161391733307  0.0159980897872893
  0.5675970619659196  0.7222639085285042  0.4207899895914504
  0.2859656074416498  0.1107954193860259  0.9044065523315649
  0.3352351558936802  0.5346453226018553  0.7516783617750804
  0.8919000867073411  0.2861918117638040  0.0136233315643643
  0.7945723160519875  0.3971448580988798  0.5708125967137769
  0.0937623553037266  0.9297541736234166  0.2431245823881265
  0.9280837302694114  0.0750737784687853  0.7743320614577722
  0.6061520920018024  0.4809754115894884  0.2103893179163168
  0.7008106981669859  0.9266704920042818  0.0990073388243492
  0.2091962792367328  0.5913343606822968  0.3850407493856847
  0.1604722234941482  0.7439744927178373  0.9614299498837122
  0.4018952486120961  0.2528384298716578  0.5659107587394296
  0.1248094034470647  0.4279802615519109  0.0566540362917710
  0.8878370662990960  0.7701762384773867  0.4257954404198708
  0.0680428231369594  0.1457216347262966  0.4339026108078265
  0.4698406231797921  0.8924810851591640  0.7069455320745531
  0.4249996899600121  0.8873019978602655  0.1855664967156634
  0.6597656555825884  0.5502571101366870  0.8779910759286033
  0.3725196133671986  0.4399913695935591  0.0667387002965903
  0.0256873232694727  0.7884191070538156  0.6038230010985171
  0.0722856131204435  0.3086086747005743  0.6076614968254171
  0.6072880949199667  0.0699185166690254  0.7263783436668207
  0.4254097748981619  0.0625556270688640  0.3498888697359516
  0.8375336769231557  0.6178618590903268  0.9470543788384435
 
  0.00000000E+00  0.00000000E+00  0.00000000E+00
  0.00000000E+00  0.00000000E+00  0.00000000E+00
  0.00000000E+00  0.00000000E+00  0.00000000E+00
  0.00000000E+00  0.00000000E+00  0.00000000E+00
  0.00000000E+00  0.00000000E+00  0.00000000E+00
  0.00000000E+00  0.00000000E+00  0.00000000E+00
  0.00000000E+00  0.00000000E+00  0.00000000E+00
  0.00000000E+00  0.00000000E+00  0.00000000E+00
  0.00000000E+00  0.00000000E+00  0.00000000E+00
  0.00000000E+00  0.00000000E+00  0.00000000E+00
  0.00000000E+00  0.00000000E+00  0.00000000E+00
  0.00000000E+00  0.00000000E+00  0.00000000E+00
  0.00000000E+00  0.00000000E+00  0.00000000E+00
  0.00000000E+00  0.00000000E+00  0.00000000E+00
  0.00000000E+00  0.00000000E+00  0.00000000E+00
  0.00000000E+00  0.00000000E+00  0.00000000E+00
  0.00000000E+00  0.00000000E+00  0.00000000E+00
  0.00000000E+00  0.00000000E+00  0.00000000E+00
  0.00000000E+00  0.00000000E+00  0.00000000E+00
  0.00000000E+00  0.00000000E+00  0.00000000E+00
  0.00000000E+00  0.00000000E+00  0.00000000E+00
  0.00000000E+00  0.00000000E+00  0.00000000E+00
  0.00000000E+00  0.00000000E+00  0.00000000E+00
  0.00000000E+00  0.00000000E+00  0.00000000E+00
  0.00000000E+00  0.00000000E+00  0.00000000E+00
  0.00000000E+00  0.00000000E+00  0.00000000E+00
  0.00000000E+00  0.00000000E+00  0.00000000E+00
  0.00000000E+00  0.00000000E+00  0.00000000E+00
  0.00000000E+00  0.00000000E+00  0.00000000E+00
  0.00000000E+00  0.00000000E+00  0.00000000E+00
  0.00000000E+00  0.00000000E+00  0.00000000E+00
  0.00000000E+00  0.00000000E+00  0.00000000E+00
  0.00000000E+00  0.00000000E+00  0.00000000E+00
  0.00000000E+00  0.00000000E+00  0.00000000E+00
  0.00000000E+00  0.00000000E+00  0.00000000E+00
  0.00000000E+00  0.00000000E+00  0.00000000E+00
  0.00000000E+00  0.00000000E+00  0.00000000E+00
  0.00000000E+00  0.00000000E+00  0.00000000E+00
  0.00000000E+00  0.00000000E+00  0.00000000E+00
