Ca1 Ni4 S6 O24                          
   1.00000000000000     
     7.6659170000000003    0.2684140000000000    4.0977560000000004
     2.7591660000000000    7.0036360000000002    4.3726599999999998
     0.6503980000000000    0.2101490000000000    8.7086869999999994
   Ca   Ni   S    O 
     1     4     6    24
Direct
  0.2566297810933973  0.8430011335527003  0.5610799945563737
  0.6523786851814066  0.6563139646108381  0.6403227290055927
  0.1308005169680992  0.1595424254519737  0.1348726902823582
  0.8466141425956860  0.8266659331433368  0.8627129764793349
  0.3590970915641326  0.3332174067930949  0.3539629963436274
  0.9745331015828729  0.2534991918276124  0.5133774797523168
  0.4346778339904084  0.0288996242072531  0.7576081815792705
  0.5685413900325537  0.9766663257261311  0.2228094666673068
  0.7256853272512634  0.4571170011452302  0.0684730617772043
  0.2617656768989478  0.5230315540898084  0.9387166735926841
  0.0307447904221149  0.7347283260856011  0.4757563815745702
  0.4318884584037425  0.5547098938156763  0.7567655571371212
  0.8801202900106190  0.2650794988004498  0.0995713884679785
  0.8400901726455564  0.4108945775892957  0.5837112471217659
  0.1158384223476451  0.8894620632361949  0.3402207626037326
  0.5919086360907631  0.7856008592271180  0.3873700482315461
  0.2760289035400393  0.0324135622835118  0.9442355386594917
  0.7271519680612524  0.9616662088599365  0.0435623051282938
  0.1469771367619749  0.5612625158532655  0.4254610056400470
  0.1002415472791883  0.7168746297083494  0.9095420014379502
  0.4045767704555501  0.2224714003694831  0.6056021830167739
  0.9380568959736627  0.0686221866459897  0.6495921275602792
  0.5417452001543466  0.4527817633049026  0.2413777239718957
  0.9791554764800581  0.3002302827327313  0.3239501403285635
  0.4382958274709416  0.8909639061047092  0.7055787308385811
  0.3792777274796242  0.0319768650613873  0.2151914845384362
  0.6921153983813595  0.5163047410184951  0.8957733590839735
  0.2179238302986727  0.3808794733023970  0.9437609645406506
  0.8327979343978900  0.8038006583261846  0.4840282778488967
  0.1789370937216818  0.1960466881775043  0.5009140563958994
  0.6160720626152416  0.9617708882860204  0.7846395784927291
  0.5666477800260755  0.1206081029748514  0.2648426466046646
  0.7686932103732177  0.6010319705901548  0.0641982457750734
  0.3001366796977535  0.4681253905353301  0.1060734539155554
  0.0299127162121157  0.6878905167815365  0.6681781475600105
 
             NaN             NaN             NaN
             NaN             NaN             NaN
             NaN             NaN             NaN
             NaN             NaN             NaN
             NaN             NaN             NaN
             NaN             NaN             NaN
             NaN             NaN             NaN
             NaN             NaN             NaN
             NaN             NaN             NaN
             NaN             NaN             NaN
             NaN             NaN             NaN
             NaN             NaN             NaN
             NaN             NaN             NaN
             NaN             NaN             NaN
             NaN             NaN             NaN
             NaN             NaN             NaN
             NaN             NaN             NaN
             NaN             NaN             NaN
             NaN             NaN             NaN
             NaN             NaN             NaN
             NaN             NaN             NaN
             NaN             NaN             NaN
             NaN             NaN             NaN
             NaN             NaN             NaN
             NaN             NaN             NaN
             NaN             NaN             NaN
             NaN             NaN             NaN
             NaN             NaN             NaN
             NaN             NaN             NaN
             NaN             NaN             NaN
             NaN             NaN             NaN
             NaN             NaN             NaN
             NaN             NaN             NaN
             NaN             NaN             NaN
             NaN             NaN             NaN
