Ca1 Ni4 S6 O24                          
   1.00000000000000     
     7.6659170000000003    0.2684140000000000    4.0977560000000004
     2.7591660000000000    7.0036360000000002    4.3726599999999998
     0.6503980000000000    0.2101490000000000    8.7086869999999994
   Ca   Ni   S    O 
     1     4     6    24
Direct
  0.2519276044827257  0.8520790376307836  0.5788531232559072
  0.6473298604717129  0.6561493818376960  0.6424207053644160
  0.1363613449842411  0.1595198204951490  0.1323100100083228
  0.8423471724854885  0.8300068049668384  0.8592952765166250
  0.3608991729171892  0.3289130588647255  0.3577144505342103
  0.9737720108343224  0.2506758118798750  0.5144023073189914
  0.4396142531809847  0.0297112543874877  0.7495861209350031
  0.5676946192180120  0.9702448312428815  0.2255017407685969
  0.7314395733023951  0.4556734210804787  0.0595762096630745
  0.2585869570941491  0.5227721393058130  0.9481744246321541
  0.0289168583303638  0.7393522696216305  0.4761041355639716
  0.4301617264551564  0.5567490149433931  0.7613625738301304
  0.8936387453502482  0.2681519855297987  0.0755975126008954
  0.8295771298777564  0.4179745933696842  0.5857829675700322
  0.0902886504715480  0.9114071408931146  0.3432245371300571
  0.5950152953557829  0.7781213295517472  0.3850917880003084
  0.2931373364762703  0.0177455810342361  0.9518463182501800
  0.7156998283167999  0.9619517932072993  0.0412889387413113
  0.1720181009422442  0.5747985246603873  0.4080524597409677
  0.0972532997968579  0.7171838501709521  0.9164757729898656
  0.3944083339204574  0.2225235164508123  0.6112242048447851
  0.9363858079019058  0.0692800838654506  0.6544166611861710
  0.5571702262748616  0.4320311007250027  0.2488888452624705
  0.9742921784979724  0.3001499681836902  0.3251655326100189
  0.4362563848986509  0.8932415395787280  0.7014421086211090
  0.3702011735485815  1.0309082960188003  0.2257163840858760
  0.6789085118617625  0.5185478285847097  0.9012821431142166
  0.2208087071478633  0.3827584978477014  0.9433867660703121
  0.8401146071896402  0.7826656472801076  0.4884186544005014
  0.1716084221058301  0.2034278536984041  0.5030012837741793
  0.6309331924424387  0.9628310216090424  0.7586599924455417
  0.5701564383513360  0.1110702980941700  0.2673441452439621
  0.7674636968114190  0.6023149877034891  0.0576765663467542
  0.2999709028779514  0.4673612594021599  0.1088943429218071
  0.0350291954697122  0.6907999543460019  0.6644316325841451
 
             NaN             NaN             NaN
             NaN             NaN             NaN
             NaN             NaN             NaN
             NaN             NaN             NaN
             NaN             NaN             NaN
             NaN             NaN             NaN
             NaN             NaN             NaN
             NaN             NaN             NaN
             NaN             NaN             NaN
             NaN             NaN             NaN
             NaN             NaN             NaN
             NaN             NaN             NaN
             NaN             NaN             NaN
             NaN             NaN             NaN
             NaN             NaN             NaN
             NaN             NaN             NaN
             NaN             NaN             NaN
             NaN             NaN             NaN
             NaN             NaN             NaN
             NaN             NaN             NaN
             NaN             NaN             NaN
             NaN             NaN             NaN
             NaN             NaN             NaN
             NaN             NaN             NaN
             NaN             NaN             NaN
             NaN             NaN             NaN
             NaN             NaN             NaN
             NaN             NaN             NaN
             NaN             NaN             NaN
             NaN             NaN             NaN
             NaN             NaN             NaN
             NaN             NaN             NaN
             NaN             NaN             NaN
             NaN             NaN             NaN
             NaN             NaN             NaN
