Ca1 Mn4 S6 O24                          
   1.00000000000000     
     7.7085059999999999    0.1147550000000000    4.9675130000000003
     2.7824840000000002    6.9203130000000002    4.8517630000000000
     0.5821970000000000    0.1537780000000000    8.9804099999999991
   Ca   Mn   S    O 
     1     4     6    24
Direct
  0.4304200404825959  0.5803647449222031  0.4874127001818575
  0.6452872696269683  0.6485400614986334  0.6543143410794108
  0.1475668896519845  0.1543036478614563  0.1493431743213944
  0.8367505217714265  0.8528879779897550  0.8432511014368190
  0.3497752340284481  0.3501034466612768  0.3536627691071206
  0.9612120703993945  0.2373682681197519  0.5378962012708037
  0.4382885443807879  0.0612208266282455  0.7541425280483114
  0.5513991071637743  0.9505058056141090  0.2416208054929791
  0.7387835246163362  0.4739268276486835  0.0553960769294728
  0.2435928041160906  0.5299145805028219  0.9584086542382437
  0.0317255782863824  0.7647021506505781  0.4474510696550784
  0.3897315260661252  0.6023226453860446  0.7593069524775028
  0.9370843654098969  0.3473558840762015  0.0212031366562320
  0.7700025099066437  0.3665311264775792  0.6225909278836561
  0.0020310819286707  0.9741162586057588  0.3301723490737883
  0.6279008142253640  0.7521890947861609  0.3746065142804709
  0.2975754780037597  0.0252668341511808  0.9658825663436095
  0.6896768506213049  0.9798606331127592  0.0332945188376332
  0.2332133636231681  0.6465551176414823  0.3568198841914895
  0.0523952511153646  0.6584486559826039  0.9629677796312963
  0.3577747417887032  0.2651764167526192  0.6314192206376227
  0.9782901235697634  0.0282622566988004  0.6572919531614664
  0.6048980563544299  0.3995911254528811  0.2623600675698641
  0.9882583178863370  0.2822767917501975  0.3368969127209123
  0.4630256872456271  0.9209707750786538  0.6993014310987787
  0.3694659266763827  0.9538809613455546  0.2764454730495011
  0.6804427777046480  0.5059919146476616  0.9182113673690179
  0.2862461881797783  0.3330831688979254  0.9714353709387890
  0.8988338805191575  0.7136705061492485  0.4624659995964217
  0.1123118313333937  0.2607590066510559  0.5251086304605220
  0.6211522794866597  0.0380264204944706  0.7309412090755240
  0.5221594599035888  0.1012028364793557  0.2844277863352934
  0.7074246243139612  0.6686618541310930  0.0385430841570824
  0.2718181600053033  0.5095416678746137  0.1112671002316352
  0.0087389395133363  0.7177476326865426  0.6474238393973383
 
             NaN             NaN             NaN
             NaN             NaN             NaN
             NaN             NaN             NaN
             NaN             NaN             NaN
             NaN             NaN             NaN
             NaN             NaN             NaN
             NaN             NaN             NaN
             NaN             NaN             NaN
             NaN             NaN             NaN
             NaN             NaN             NaN
             NaN             NaN             NaN
             NaN             NaN             NaN
             NaN             NaN             NaN
             NaN             NaN             NaN
             NaN             NaN             NaN
             NaN             NaN             NaN
             NaN             NaN             NaN
             NaN             NaN             NaN
             NaN             NaN             NaN
             NaN             NaN             NaN
             NaN             NaN             NaN
             NaN             NaN             NaN
             NaN             NaN             NaN
             NaN             NaN             NaN
             NaN             NaN             NaN
             NaN             NaN             NaN
             NaN             NaN             NaN
             NaN             NaN             NaN
             NaN             NaN             NaN
             NaN             NaN             NaN
             NaN             NaN             NaN
             NaN             NaN             NaN
             NaN             NaN             NaN
             NaN             NaN             NaN
             NaN             NaN             NaN
