Ca1 Mn4 S6 O24
1.0
7.708506 0.114755 4.967513
2.782484 6.920313 4.851763
0.582197 0.153778 8.980410
Ca Mn S O
1 4 6 24
direct
0.438314 0.586997 0.528328 Ca
0.650720 0.645811 0.646335 Mn
0.152457 0.149676 0.146646 Mn
0.833577 0.847805 0.845808 Mn
0.351611 0.350135 0.348508 Mn
0.954320 0.240943 0.535741 S
0.441543 0.051995 0.752094 S
0.548436 0.945413 0.241512 S
0.749937 0.461279 0.045359 S
0.246727 0.529589 0.953239 S
0.043508 0.755766 0.454375 S
0.385187 0.605495 0.752320 O
0.948817 0.338364 0.011612 O
0.761270 0.369846 0.616180 O
0.017752 0.964516 0.330113 O
0.629755 0.748455 0.370201 O
0.309512 0.015098 0.964697 O
0.682831 0.976852 0.031128 O
0.242097 0.630952 0.373207 O
0.053505 0.659767 0.971555 O
0.355229 0.250853 0.630079 O
0.970708 0.034317 0.661929 O
0.618966 0.379573 0.250199 O
0.985023 0.280409 0.335869 O
0.467525 0.905734 0.703950 O
0.365170 0.954390 0.277450 O
0.697152 0.492866 0.904485 O
0.282482 0.336755 0.964334 O
0.905879 0.710125 0.470387 O
0.098296 0.272223 0.523598 O
0.624979 0.039156 0.716432 O
0.521401 0.094408 0.285290 O
0.713615 0.655843 0.032466 O
0.287763 0.501917 0.100196 O
0.011368 0.719610 0.654492 O
