Fe6 P18 O54
1.0
0.000000 0.000000 -9.410000
10.500460 0.000000 1.497336
-5.250230 -9.538000 3.956332
Fe P O
6 18 54
direct
0.350600 0.922300 0.156800 Fe3+
0.693800 0.765500 0.843200 Fe3+
0.031600 0.069300 0.488600 Fe3+
0.043000 0.580700 0.511400 Fe3+
0.362700 0.436700 0.178000 Fe3+
0.684700 0.258700 0.822000 Fe3+
0.431000 0.680400 0.938800 P5+
0.992200 0.741600 0.061200 P5+
0.776300 0.000700 0.603400 P5+
0.672900 0.397300 0.396600 P5+
0.331000 0.057900 0.726600 P5+
0.104400 0.331300 0.273400 P5+
0.784700 0.132400 0.041800 P5+
0.242900 0.090600 0.958200 P5+
0.458500 0.784100 0.373000 P5+
0.585500 0.411100 0.627000 P5+
0.609100 0.516800 0.052600 P5+
0.056500 0.464200 0.947400 P5+
0.937000 0.715700 0.291800 P5+
0.145200 0.423900 0.708200 P5+
0.405200 0.781200 0.609600 P5+
0.295600 0.171600 0.390400 P5+
0.728800 0.112600 0.270800 P5+
0.958000 0.841800 0.729200 P5+
0.008000 0.706000 0.186000 O2-
0.322000 0.520000 0.814000 O2-
0.358600 0.814800 0.263600 O2-
0.595000 0.551200 0.736400 O2-
0.584400 0.985100 0.215600 O2-
0.868800 0.769500 0.784400 O2-
0.924000 0.860400 0.347800 O2-
0.076200 0.512600 0.652200 O2-
0.807100 0.507600 0.418400 O2-
0.888700 0.089200 0.581600 O2-
0.485500 0.433300 0.069200 O2-
0.916300 0.364100 0.930800 O2-
0.765600 0.597400 0.196400 O2-
0.069200 0.401000 0.803600 O2-
0.123400 0.874600 0.109400 O2-
0.514000 0.765200 0.890600 O2-
0.028800 0.667200 0.383800 O2-
0.145000 0.283400 0.616200 O2-
0.621800 0.909500 0.460200 O2-
0.661600 0.449300 0.539800 O2-
0.223600 0.437300 0.271400 O2-
0.452200 0.165900 0.728600 O2-
0.231900 0.235500 0.046000 O2-
0.685900 0.189500 0.954000 O2-
0.554200 0.651300 0.049600 O2-
0.004600 0.601700 0.950400 O2-
0.488200 0.639900 0.323400 O2-
0.664800 0.316500 0.676600 O2-
0.382300 0.804800 0.482600 O2-
0.399700 0.322200 0.517400 O2-
0.170900 0.206400 0.290400 O2-
0.380500 0.916000 0.709600 O2-
0.708700 0.251100 0.379200 O2-
0.829500 0.871900 0.620800 O2-
0.518800 0.367400 0.286000 O2-
0.732800 0.081400 0.714000 O2-
0.217300 0.506500 0.065400 O2-
0.651900 0.441100 0.934600 O2-
0.202600 0.076600 0.424200 O2-
0.278400 0.652400 0.575800 O2-
0.326000 0.745900 0.003000 O2-
0.823000 0.742900 0.997000 O2-
0.398600 0.110200 0.329800 O2-
0.568800 0.780400 0.670200 O2-
0.889700 0.103600 0.334200 O2-
0.055500 0.769400 0.665800 O2-
0.038100 0.387800 0.375800 O2-
0.162300 0.012000 0.624200 O2-
0.965300 0.238400 0.122800 O2-
0.342500 0.115600 0.877200 O2-
0.721300 0.153100 0.155200 O2-
0.066100 0.997900 0.844800 O2-
0.319900 0.012700 0.032000 O2-
0.787900 0.980700 0.968000 O2-
