Ni12 P5                                 
   1.00000000000000     
     0.0027712757778361   -0.0034429471624440   -4.9613526511568917
    -4.2104481094223427   -4.2130981506117626   -2.4812508174776813
    -4.2097254773672868    4.2089674265647474   -2.4753889211029469
   Ni   P 
    12     5
Direct
  0.0651568123105898  0.0641298786067711  0.2997298617716706
  0.4310867651263009  0.9356740366270251  0.6998272364359212
  0.3644472096612923  0.7008502665993299  0.0641400409090626
  0.1313926641937117  0.2992258492524421  0.9370959493378627
  0.9348420159382388  0.9358695703749942  0.7002707173519632
  0.5689127310415771  0.0643251641239072  0.3001732841003462
  0.6355521908546747  0.2991423341597935  0.9358576222911228
  0.8686106989179825  0.7007752120861527  0.0629013349947947
  0.9383374895575038  0.6964818585912704  0.4253198864784311
  0.0616600441392040  0.3035204415744889  0.5746814316655836
  0.3626469937036532  0.5742244038704786  0.6968363838219407
  0.6373544863969743  0.4257790136425250  0.3031641457363767
  0.5863329253659807  0.2191872872433395  0.6089582985829818
  0.4136657056108299  0.7808149219355790  0.3910425566271794
  0.1958653551188282  0.3909412872641294  0.2194048959288881
  0.8041346753123211  0.6090586020310477  0.7805958433180654
  0.0000012367503367 -0.0000001279832740  0.0000005106478099
 
  0.00000000E+00  0.00000000E+00  0.00000000E+00
  0.00000000E+00  0.00000000E+00  0.00000000E+00
  0.00000000E+00  0.00000000E+00  0.00000000E+00
  0.00000000E+00  0.00000000E+00  0.00000000E+00
  0.00000000E+00  0.00000000E+00  0.00000000E+00
  0.00000000E+00  0.00000000E+00  0.00000000E+00
  0.00000000E+00  0.00000000E+00  0.00000000E+00
  0.00000000E+00  0.00000000E+00  0.00000000E+00
  0.00000000E+00  0.00000000E+00  0.00000000E+00
  0.00000000E+00  0.00000000E+00  0.00000000E+00
  0.00000000E+00  0.00000000E+00  0.00000000E+00
  0.00000000E+00  0.00000000E+00  0.00000000E+00
  0.00000000E+00  0.00000000E+00  0.00000000E+00
  0.00000000E+00  0.00000000E+00  0.00000000E+00
  0.00000000E+00  0.00000000E+00  0.00000000E+00
  0.00000000E+00  0.00000000E+00  0.00000000E+00
  0.00000000E+00  0.00000000E+00  0.00000000E+00
