V2 P2 O8                                
   1.00000000000000     
    -2.6139847064290831   -3.8842656208955106   -0.0000118240026113
    -2.6139651384276630    3.8842517980824667   -0.0000110298276670
    -0.0000398405434861   -0.0000006414564119   -6.3486802754442566
   V    P    O 
     2     2     8
Direct
  0.0000239683358316  0.0000243630995982  0.5000000813947949
  0.0000242148182465  0.0000241163411658  0.0000000962667031
  0.6480368633464550  0.3519514126691874  0.7499999141505356
  0.3519515543274139  0.6480370177058887  0.2500001271303205
  0.7775782256135386  0.7110980081522555  0.7499980343480956
  0.7110936931337548  0.7775732643350537  0.2499980140929452
  0.2224576726164358  0.2889025425054683  0.2500019222790471
  0.2889069737569727  0.2224626552348283  0.7500019429234825
  0.7544878178619214  0.2454730798686171  0.5503344727188448
  0.2454756374566287  0.7544901957942045  0.4496654666821840
  0.7544896946501112  0.2454749370767573  0.9496655819939193
  0.2454736840826968  0.7544884072169751  0.0503343460191203
 
  0.00000000E+00  0.00000000E+00  0.00000000E+00
  0.00000000E+00  0.00000000E+00  0.00000000E+00
  0.00000000E+00  0.00000000E+00  0.00000000E+00
  0.00000000E+00  0.00000000E+00  0.00000000E+00
  0.00000000E+00  0.00000000E+00  0.00000000E+00
  0.00000000E+00  0.00000000E+00  0.00000000E+00
  0.00000000E+00  0.00000000E+00  0.00000000E+00
  0.00000000E+00  0.00000000E+00  0.00000000E+00
  0.00000000E+00  0.00000000E+00  0.00000000E+00
  0.00000000E+00  0.00000000E+00  0.00000000E+00
  0.00000000E+00  0.00000000E+00  0.00000000E+00
  0.00000000E+00  0.00000000E+00  0.00000000E+00
