Ca4 Fe4 Si6 O24                         
   1.00000000000000     
     0.1838394598378854   -0.1305457278581861    8.8580003303390367
     7.6268943355322651   -0.1304316368723009    4.5087337214097243
     2.5085015429777289    7.0799601706977926    4.2931172792818488
   Ca   Fe   Si   O 
     4     4     6    24
Direct
  0.4979240970152851  0.4974970996047922  0.4980907482525720
  0.9974976441358524  0.9979244038615308  0.9980902362031178
  0.0950828364011996  0.4007861017943234  0.7471511844866520
  0.9007853961768223  0.5950818299084959  0.2471543700553870
  0.6402859489188840  0.6475363806132899  0.6404126774922856
  0.1475321542133057  0.1402848904245286  0.1404131442367818
  0.8475646512612562  0.8571218727841432  0.8539926962130454
  0.3571290829182608  0.3475657789660448  0.3539837810680994
  0.5352020997398460  0.9603102863529579  0.2473827066667461
  0.7336475426853961  0.4724512564112004  0.0459251611621136
  0.2626293803454564  0.5238275549487195  0.9492527983165167
  0.0238268359300965  0.7626278449101859  0.4492554949016763
  0.9724508830013705  0.2336463060810457  0.5459267824798067
  0.4603120358302901  0.0352063869958850  0.7473836543864166
  0.7756603111385665  0.4195249506259959  0.5486368612264992
  0.0458948179704051  0.9395481900935609  0.2696556687038736
  0.5683721886307401  0.7559286326781881  0.4114473206499876
  0.2559286101648480  0.0683756323115542  0.9114494770709384
  0.4395447048590347  0.5458925999883598  0.7696608732937271
  0.9195302043663367  0.2756583581963385  0.0486402014734037
  0.0770659910418650  0.7206590288978040  0.9468199627959247
  0.4277586027489500  0.2394278713545192  0.5828961348689208
  0.9494381110640879  0.0573014065281667  0.7256961234337163
  0.5573066337027562  0.4494373490772415  0.2256902961687679
  0.7394287272662431  0.9277567265659996  0.0828961942783213
  0.2206589158757477  0.5770691611451221  0.4468202808701571
  0.3633357818619944  0.9906208065374215  0.2028005291664572
  0.7430086741658019  0.5049557492801137  0.8379223597125230
  0.2124765723427776  0.3675866264689260  0.9580785286672128
  0.8675876008705508  0.7124806412013005  0.4580714349030968
  0.0049554949292944  0.2430003510170321  0.3379255567943326
  0.4906198420085745  0.8633377762120835  0.7028071578492721
  0.5060993454008321  0.1314108380457717  0.2921754632422611
  0.7832547838709769  0.6291647676784119  0.0367252519779871
  0.2538020040525111  0.4905347798407851  0.1573335910586462
  0.9905246684736597  0.7538073522883093  0.6573322510656844
  0.1291649116642599  0.2832521926190852  0.5367234920654288
  0.6314119129558796  0.0061002176908099  0.7921795527416943
 
  0.00000000E+00  0.00000000E+00  0.00000000E+00
  0.00000000E+00  0.00000000E+00  0.00000000E+00
  0.00000000E+00  0.00000000E+00  0.00000000E+00
  0.00000000E+00  0.00000000E+00  0.00000000E+00
  0.00000000E+00  0.00000000E+00  0.00000000E+00
  0.00000000E+00  0.00000000E+00  0.00000000E+00
  0.00000000E+00  0.00000000E+00  0.00000000E+00
  0.00000000E+00  0.00000000E+00  0.00000000E+00
  0.00000000E+00  0.00000000E+00  0.00000000E+00
  0.00000000E+00  0.00000000E+00  0.00000000E+00
  0.00000000E+00  0.00000000E+00  0.00000000E+00
  0.00000000E+00  0.00000000E+00  0.00000000E+00
  0.00000000E+00  0.00000000E+00  0.00000000E+00
  0.00000000E+00  0.00000000E+00  0.00000000E+00
  0.00000000E+00  0.00000000E+00  0.00000000E+00
  0.00000000E+00  0.00000000E+00  0.00000000E+00
  0.00000000E+00  0.00000000E+00  0.00000000E+00
  0.00000000E+00  0.00000000E+00  0.00000000E+00
  0.00000000E+00  0.00000000E+00  0.00000000E+00
  0.00000000E+00  0.00000000E+00  0.00000000E+00
  0.00000000E+00  0.00000000E+00  0.00000000E+00
  0.00000000E+00  0.00000000E+00  0.00000000E+00
  0.00000000E+00  0.00000000E+00  0.00000000E+00
  0.00000000E+00  0.00000000E+00  0.00000000E+00
  0.00000000E+00  0.00000000E+00  0.00000000E+00
  0.00000000E+00  0.00000000E+00  0.00000000E+00
  0.00000000E+00  0.00000000E+00  0.00000000E+00
  0.00000000E+00  0.00000000E+00  0.00000000E+00
  0.00000000E+00  0.00000000E+00  0.00000000E+00
  0.00000000E+00  0.00000000E+00  0.00000000E+00
  0.00000000E+00  0.00000000E+00  0.00000000E+00
  0.00000000E+00  0.00000000E+00  0.00000000E+00
  0.00000000E+00  0.00000000E+00  0.00000000E+00
  0.00000000E+00  0.00000000E+00  0.00000000E+00
  0.00000000E+00  0.00000000E+00  0.00000000E+00
  0.00000000E+00  0.00000000E+00  0.00000000E+00
  0.00000000E+00  0.00000000E+00  0.00000000E+00
  0.00000000E+00  0.00000000E+00  0.00000000E+00
