Co4 P4 O16                              
   1.00000000000000     
     9.5341111316730931   -0.0000000305377140   -0.0000040214709763
     0.0000000107285232    5.7835388151999201    0.0000000576330180
    -0.0000020170443569    0.0000000141904170    4.7848598041133092
   Co   P    O 
     4     4    16
Direct
  0.7685801805924584  0.2500000035200927  0.5547921454935008
  0.2685799966179161  0.2499999963055757  0.9452074841007203
  0.2314245267760171  0.7499999981314360  0.4452092625239317
  0.7314243717379512  0.7500000050865410  0.0547910988298455
  0.5913954610538852  0.2499999976745073  0.1146062446936114
  0.0914001194862877  0.2500000006153584  0.3853948363844779
  0.4086052528472592  0.7500000017844215  0.8853769450856959
  0.9086100565325097  0.7499999974755625  0.6146241364340312
  0.6214823658552078  0.2500000023464537  0.8019336925087970
  0.1214816678364841  0.2500000028997817  0.6980631986667021
  0.3785156162700716  0.7500000004563887  0.1980559405005451
  0.8785150058024271  0.7499999975752445  0.3019425798460347
  0.9331356500402492  0.2500000023594495  0.3447561306575793
  0.4331389588750341  0.2499999935576582  0.1552437074784692
  0.0668622080855030  0.7499999954896239  0.6552736556760479
  0.5668655866980856  0.7500000048650008  0.8447262338266128
  0.6612217185557370  0.0427301923527423  0.2648339987285127
  0.1612212096609440  0.4572692407510459  0.2351664157589113
  0.3387746281750026  0.5427307453271197  0.7351695636102633
  0.8387739293040752  0.9572704968242007  0.7648313718812574
  0.3387746287298370  0.9572692511106453  0.7351695585240634
  0.8387739303022528  0.5427295066886728  0.7648313814833259
  0.6612217198411869  0.4572698114366673  0.2648339937219149
  0.1612212103236175  0.0427307553658025  0.2351664235851629
 
  0.00000000E+00  0.00000000E+00  0.00000000E+00
  0.00000000E+00  0.00000000E+00  0.00000000E+00
  0.00000000E+00  0.00000000E+00  0.00000000E+00
  0.00000000E+00  0.00000000E+00  0.00000000E+00
  0.00000000E+00  0.00000000E+00  0.00000000E+00
  0.00000000E+00  0.00000000E+00  0.00000000E+00
  0.00000000E+00  0.00000000E+00  0.00000000E+00
  0.00000000E+00  0.00000000E+00  0.00000000E+00
  0.00000000E+00  0.00000000E+00  0.00000000E+00
  0.00000000E+00  0.00000000E+00  0.00000000E+00
  0.00000000E+00  0.00000000E+00  0.00000000E+00
  0.00000000E+00  0.00000000E+00  0.00000000E+00
  0.00000000E+00  0.00000000E+00  0.00000000E+00
  0.00000000E+00  0.00000000E+00  0.00000000E+00
  0.00000000E+00  0.00000000E+00  0.00000000E+00
  0.00000000E+00  0.00000000E+00  0.00000000E+00
  0.00000000E+00  0.00000000E+00  0.00000000E+00
  0.00000000E+00  0.00000000E+00  0.00000000E+00
  0.00000000E+00  0.00000000E+00  0.00000000E+00
  0.00000000E+00  0.00000000E+00  0.00000000E+00
  0.00000000E+00  0.00000000E+00  0.00000000E+00
  0.00000000E+00  0.00000000E+00  0.00000000E+00
  0.00000000E+00  0.00000000E+00  0.00000000E+00
  0.00000000E+00  0.00000000E+00  0.00000000E+00
