Ni20 P16                                
   1.00000000000000     
     6.6689103686016438    0.0003612141572588    0.0000034904349613
    -3.3341423337209322    5.7756176757312385   -0.0000008563705345
     0.0000056870049079    0.0000017065436838   10.7556614039271281
   Ni   P 
    20    16
Direct
  0.4616420746209400  0.9232568365079317  0.5893886891742000
  0.0767416010396857  0.5383565446286198  0.5893902785750953
  0.4616137579611461  0.5383857809582295  0.5893611948379913
  0.5383531049454930  0.0767377057258258  0.0893926250013948
  0.9232592117581504  0.4616429512781508  0.0893912266764758
  0.5383849835620538  0.4616138522351179  0.0893608527310903
  0.7922864673549412  0.5844080595593582  0.7369459706645145
  0.4155921750124634  0.2077161532788310  0.7369461532076045
  0.7922096989409937  0.2077909967473701  0.7369680882131320
  0.2077142003394883  0.4155922011081117  0.2369459665553606
  0.5844083020996180  0.7922854362077274  0.2369455230882380
  0.2077906239656357  0.7922093132137249  0.2369683645260139
  0.4599030690678632  0.9197281272262288  0.8799524657917459
  0.0802723751071355  0.5400960913019972  0.8799524129733456
  0.4598615679839710  0.5401416606148572  0.8799477048536986
  0.5400960236026791  0.0802723184559895  0.3799520739757369
  0.9197275507798963  0.4599023541297598  0.3799522845675014
  0.5401420084877557  0.4598620266447782  0.3799481837447729
  0.9999905737430339  0.0000110444887440  0.7014041351741298
  0.0000103132561691  0.9999892017784831  0.2014042633652338
  0.1817015413763485  0.3633796226119017  0.7318656729131092
  0.6366213491697437  0.8182992658329127  0.7318653530211989
  0.1817003941576374  0.8182994932289773  0.7318666195383443
  0.8182977227131829  0.6366202925584048  0.2318655979647275
  0.3633789744385538  0.1817023922280327  0.2318659301901533
  0.8182994170537654  0.1816999624210638  0.2318666858961222
  0.8210690855362799  0.6421260571140763  0.9420157870777004
  0.3578736577927089  0.1789335324299941  0.9420159510782398
  0.8210550081449526  0.1789418819791209  0.9419993424678665
  0.1789334472493778  0.3578733409262185  0.4420153495916495
  0.6421269157440221  0.8210704564353932  0.4420143319968943
  0.1789418054325722  0.8210551398561137  0.4419990423423528
  0.0000024253586091  0.9999970715500197  0.5005259179837296
  0.9999971960036191  0.0000025278632592  0.0005252677825425
  0.6666644887187516  0.3333372385649511  0.5591671352993970
  0.3333368874807618  0.6666630683097381  0.0591675571586734
 
  0.00000000E+00  0.00000000E+00  0.00000000E+00
  0.00000000E+00  0.00000000E+00  0.00000000E+00
  0.00000000E+00  0.00000000E+00  0.00000000E+00
  0.00000000E+00  0.00000000E+00  0.00000000E+00
  0.00000000E+00  0.00000000E+00  0.00000000E+00
  0.00000000E+00  0.00000000E+00  0.00000000E+00
  0.00000000E+00  0.00000000E+00  0.00000000E+00
  0.00000000E+00  0.00000000E+00  0.00000000E+00
  0.00000000E+00  0.00000000E+00  0.00000000E+00
  0.00000000E+00  0.00000000E+00  0.00000000E+00
  0.00000000E+00  0.00000000E+00  0.00000000E+00
  0.00000000E+00  0.00000000E+00  0.00000000E+00
  0.00000000E+00  0.00000000E+00  0.00000000E+00
  0.00000000E+00  0.00000000E+00  0.00000000E+00
  0.00000000E+00  0.00000000E+00  0.00000000E+00
  0.00000000E+00  0.00000000E+00  0.00000000E+00
  0.00000000E+00  0.00000000E+00  0.00000000E+00
  0.00000000E+00  0.00000000E+00  0.00000000E+00
  0.00000000E+00  0.00000000E+00  0.00000000E+00
  0.00000000E+00  0.00000000E+00  0.00000000E+00
  0.00000000E+00  0.00000000E+00  0.00000000E+00
  0.00000000E+00  0.00000000E+00  0.00000000E+00
  0.00000000E+00  0.00000000E+00  0.00000000E+00
  0.00000000E+00  0.00000000E+00  0.00000000E+00
  0.00000000E+00  0.00000000E+00  0.00000000E+00
  0.00000000E+00  0.00000000E+00  0.00000000E+00
  0.00000000E+00  0.00000000E+00  0.00000000E+00
  0.00000000E+00  0.00000000E+00  0.00000000E+00
  0.00000000E+00  0.00000000E+00  0.00000000E+00
  0.00000000E+00  0.00000000E+00  0.00000000E+00
  0.00000000E+00  0.00000000E+00  0.00000000E+00
  0.00000000E+00  0.00000000E+00  0.00000000E+00
  0.00000000E+00  0.00000000E+00  0.00000000E+00
  0.00000000E+00  0.00000000E+00  0.00000000E+00
  0.00000000E+00  0.00000000E+00  0.00000000E+00
  0.00000000E+00  0.00000000E+00  0.00000000E+00
