Ca4 Ni4 P6 O24                          
   1.00000000000000     
     2.5408119999999998    7.2524389999999999    4.3586070000000001
    -0.0367100000000000    0.0371840000000000    8.6825240000000008
     7.6033090000000003    0.0602990000000000    4.2680369999999996
   Ca   Ni   P    O 
     4     4     6    24
Direct
  0.5097557418385126  0.5632032192671802  0.4753400914589081
  0.9782009943768936  0.0109305289884872  0.9743519396560362
  0.3866297199854360  0.7350074549167330  0.0945359245033022
  0.1274544498732107  0.4019752762686329  0.7559668720148836
  0.6351792671168346  0.6469977181427493  0.6625900039660226
  0.1410789146455867  0.1299426833739389  0.1714872394995224
  0.8547479908094199  0.8624536414511894  0.8293249653410800
  0.3167095603629215  0.3361253644973660  0.3693397583468233
  0.2327098916537752  0.5596464446499509  0.9509275446278342
  0.0572026036434136  0.7586927714017349  0.4490760421895227
  0.9442915742512136  0.2546211162823219  0.5664152255802194
  0.4397843163014286  0.0353096872622895  0.7575756846450409
  0.5501899819831306  0.9561067048267495  0.2373889103551547
  0.7578122634937351  0.4699617461720888  0.0291243135661532
  0.5728719260591509  0.8140004009591202  0.4194643490248600
  0.2450300629279926  0.0860743883330811  0.9151294754013367
  0.4081894698027315  0.5427683044806221  0.7740935043079126
  0.8911703761896779  0.2640737064134257  0.0527127772823063
  0.7788482139532352  0.4408547284849338  0.5256172896083869
  0.0639959057340997  0.8819001980429241  0.2491928961586108
  0.8647677832801549  0.1216420287686891  0.7396094483381542
  0.6317556975608403  0.4991783469845075  0.2128380158925789
  0.7340601878768008  0.9135989053645773  0.0868468564721743
  0.2378252254266039  0.5879818038707030  0.4383307261627901
  0.0921255342376919  0.7429289426597693  0.9074671720466205
  0.4370277831447503  0.2161454277365632  0.5939535591043886
  0.1815727136493439  0.3898101256838848 -0.0019588422376779
  0.8951079510549315  0.6713091541128340  0.5388152086487535
  0.0491597543207644  0.2004836395780168  0.3937853222780127
  0.4208674016645131  0.8789289613816834  0.7421566297705009
  0.4066448876914956  0.8991710068104130  0.2260158983350712
  0.6306602553911395  0.5140816212943385  0.9349988026566289
  0.2706416471203397  0.5375428993289029  0.1174965773985005
  0.0287095154897626  0.8396020300265423  0.5698376880146754
  0.0737044197852067  0.2911935135459004  0.6075689894136375
  0.5905794231090044  0.9573134797746502  0.8328002045688713
  0.4742319131455123  0.1479747506853896  0.2346833597080590
  0.8700510373309882  0.5964369004023578  0.9139571026538771
 
             NaN             NaN             NaN
             NaN             NaN             NaN
             NaN             NaN             NaN
             NaN             NaN             NaN
             NaN             NaN             NaN
             NaN             NaN             NaN
             NaN             NaN             NaN
             NaN             NaN             NaN
             NaN             NaN             NaN
             NaN             NaN             NaN
             NaN             NaN             NaN
             NaN             NaN             NaN
             NaN             NaN             NaN
             NaN             NaN             NaN
             NaN             NaN             NaN
             NaN             NaN             NaN
             NaN             NaN             NaN
             NaN             NaN             NaN
             NaN             NaN             NaN
             NaN             NaN             NaN
             NaN             NaN             NaN
             NaN             NaN             NaN
             NaN             NaN             NaN
             NaN             NaN             NaN
             NaN             NaN             NaN
             NaN             NaN             NaN
             NaN             NaN             NaN
             NaN             NaN             NaN
             NaN             NaN             NaN
             NaN             NaN             NaN
             NaN             NaN             NaN
             NaN             NaN             NaN
             NaN             NaN             NaN
             NaN             NaN             NaN
             NaN             NaN             NaN
             NaN             NaN             NaN
             NaN             NaN             NaN
             NaN             NaN             NaN
