P8 O16                                  
   1.00000000000000     
     0.0210404579177347   -0.0000000471002258   -6.8557092196341136
    -4.7481477683087805   -5.0316845632741973    0.5803792992074430
    -4.7481478077064327    5.0316846178077048    0.5803793701455698
   P    O 
     8    16
Direct
  0.4519121355707796  0.2805464738064742  0.6408852659574933
  0.0480742359915070  0.3591039364754494  0.7194683771213448
  0.5480742037880830  0.7194683548642686  0.3591039612005176
  0.9519121461839930  0.6408852275988721  0.2805464882794766
  0.1744926983196109  0.9723868024969278  0.7415285635313182
  0.3255209395339307  0.2584720079418972  0.0276311376681520
  0.8255209096304696  0.0276310583389545  0.2584720315356748
  0.6744927151666644  0.7415285459063838  0.9723868654935899
  0.2499847801323725  0.3868662014450095  0.6131322174117813
  0.7499847514981894  0.6131322885020651  0.3868661630037025
  0.2500056386196619  0.0367017346647529  0.9632919074878430
  0.7500056714318859  0.9632918808434141  0.0367017343597951
  0.0114741231661952  0.1150139058849788  0.6960113165229771
  0.4885255621762497  0.3039965204529267  0.8849791434495913
  0.9885256538217959  0.8849791661272377  0.3039964050366564
  0.5114741564260257  0.6960112351006416  0.1150139176874703
  0.3511556591105247  0.0499636703422368  0.6273437611003203
  0.1488453170194148  0.3726529037304473  0.9500434213534987
  0.6488453377200543  0.9500434585482438  0.3726528862734142
  0.8511557131109129  0.6273438133046980  0.0499637459151643
  0.1103166939976106  0.7689620666029171  0.7114299756188700
  0.3896921637907624  0.2885638984242931  0.2310248171823659
  0.8896921135494011  0.2310249007040284  0.2885638400893384
  0.6103166802439262  0.7114299478928885  0.7689620567196229
 
  0.00000000E+00  0.00000000E+00  0.00000000E+00
  0.00000000E+00  0.00000000E+00  0.00000000E+00
  0.00000000E+00  0.00000000E+00  0.00000000E+00
  0.00000000E+00  0.00000000E+00  0.00000000E+00
  0.00000000E+00  0.00000000E+00  0.00000000E+00
  0.00000000E+00  0.00000000E+00  0.00000000E+00
  0.00000000E+00  0.00000000E+00  0.00000000E+00
  0.00000000E+00  0.00000000E+00  0.00000000E+00
  0.00000000E+00  0.00000000E+00  0.00000000E+00
  0.00000000E+00  0.00000000E+00  0.00000000E+00
  0.00000000E+00  0.00000000E+00  0.00000000E+00
  0.00000000E+00  0.00000000E+00  0.00000000E+00
  0.00000000E+00  0.00000000E+00  0.00000000E+00
  0.00000000E+00  0.00000000E+00  0.00000000E+00
  0.00000000E+00  0.00000000E+00  0.00000000E+00
  0.00000000E+00  0.00000000E+00  0.00000000E+00
  0.00000000E+00  0.00000000E+00  0.00000000E+00
  0.00000000E+00  0.00000000E+00  0.00000000E+00
  0.00000000E+00  0.00000000E+00  0.00000000E+00
  0.00000000E+00  0.00000000E+00  0.00000000E+00
  0.00000000E+00  0.00000000E+00  0.00000000E+00
  0.00000000E+00  0.00000000E+00  0.00000000E+00
  0.00000000E+00  0.00000000E+00  0.00000000E+00
  0.00000000E+00  0.00000000E+00  0.00000000E+00
