Ca1 Co4 P6 O24                          
   1.00000000000000     
     2.6711545393787022    6.9325401391788475    4.4864095815917251
     0.3686396315669089    0.2833283523331182    8.6919485956362035
     7.4333504570069815    0.2375112641922128    4.5359948907171628
   Ca   Co   P    O 
     1     4     6    24
Direct
  0.4971615211476634  0.4965557214581502  0.4988156668315538
  0.6454366067729728  0.6447895111144419  0.6456577860734178
  0.1427712986291218  0.1365155717877627  0.1421957996549430
  0.8526530628276962  0.8560587430375015  0.8540376749803089
  0.3485989041390343  0.3519098929906159  0.3483595891130899
  0.2504688419800504  0.5276892946865488  0.9566514783272236
  0.0369420977911101  0.7442707292926838  0.4672078623011663
  0.9579964958685687  0.2503594124073849  0.5282097925647428
  0.4667020920890029  0.0366217855762126  0.7450660546530332
  0.5285541264072235  0.9592107063755921  0.2496463141380421
  0.7446034750512097  0.4669325339882660  0.0378222078974957
  0.6082779796989456  0.7517898250152707  0.3912606590050376
  0.3168175074409429  0.0103951304042851  0.9549319942168122
  0.3910295917760728  0.6103597189167744  0.7504933283355838
  0.9565656492012172  0.3190715871827186  0.0123012506411765
  0.7511866194852049  0.3910164802718469  0.6103507091963961
  0.0090556967102724  0.9556003380737234  0.3167528225279738
  0.9852015331017880  0.0392179302250687  0.6787210616092735
  0.6032684947031768  0.3859215968828256  0.2441680552635059
  0.6784535653252998  0.9845162356008911  0.0400688251965257
  0.2439293424648709  0.6044304997095853  0.3842031203860137
  0.0384431254648097  0.6754467691430044  0.9834262395825246
  0.3865286952972790  0.2436389229979938  0.6036059307193876
  0.2769998997013693  0.3313410907367456  0.9732099560148904
  0.8818260119056497  0.6864640891145916  0.4973272886904372
  0.9735260907568672  0.2737693224558871  0.3342989209349218
  0.4970539853320858  0.8816168616174066  0.6883073575534576
  0.3317743750625803  0.9756838194003584  0.2741028489053487
  0.6887352187467055  0.4952898682550594  0.8826933830154954
  0.3062756986770258  0.4992878730328234  0.1119033286941266
  0.0226171853778232  0.7206006983695160  0.6605861592709400
  0.1131006119390169  0.3084923632971980  0.4980698713712845
  0.6631741923211312  0.0198952756067197  0.7210811670681642
  0.4981200190935984  0.1139016935752937  0.3067360994557842
  0.7185503877126387  0.6637381073992366  0.0201293958099483
 
  0.00000000E+00  0.00000000E+00  0.00000000E+00
  0.00000000E+00  0.00000000E+00  0.00000000E+00
  0.00000000E+00  0.00000000E+00  0.00000000E+00
  0.00000000E+00  0.00000000E+00  0.00000000E+00
  0.00000000E+00  0.00000000E+00  0.00000000E+00
  0.00000000E+00  0.00000000E+00  0.00000000E+00
  0.00000000E+00  0.00000000E+00  0.00000000E+00
  0.00000000E+00  0.00000000E+00  0.00000000E+00
  0.00000000E+00  0.00000000E+00  0.00000000E+00
  0.00000000E+00  0.00000000E+00  0.00000000E+00
  0.00000000E+00  0.00000000E+00  0.00000000E+00
  0.00000000E+00  0.00000000E+00  0.00000000E+00
  0.00000000E+00  0.00000000E+00  0.00000000E+00
  0.00000000E+00  0.00000000E+00  0.00000000E+00
  0.00000000E+00  0.00000000E+00  0.00000000E+00
  0.00000000E+00  0.00000000E+00  0.00000000E+00
  0.00000000E+00  0.00000000E+00  0.00000000E+00
  0.00000000E+00  0.00000000E+00  0.00000000E+00
  0.00000000E+00  0.00000000E+00  0.00000000E+00
  0.00000000E+00  0.00000000E+00  0.00000000E+00
  0.00000000E+00  0.00000000E+00  0.00000000E+00
  0.00000000E+00  0.00000000E+00  0.00000000E+00
  0.00000000E+00  0.00000000E+00  0.00000000E+00
  0.00000000E+00  0.00000000E+00  0.00000000E+00
  0.00000000E+00  0.00000000E+00  0.00000000E+00
  0.00000000E+00  0.00000000E+00  0.00000000E+00
  0.00000000E+00  0.00000000E+00  0.00000000E+00
  0.00000000E+00  0.00000000E+00  0.00000000E+00
  0.00000000E+00  0.00000000E+00  0.00000000E+00
  0.00000000E+00  0.00000000E+00  0.00000000E+00
  0.00000000E+00  0.00000000E+00  0.00000000E+00
  0.00000000E+00  0.00000000E+00  0.00000000E+00
  0.00000000E+00  0.00000000E+00  0.00000000E+00
  0.00000000E+00  0.00000000E+00  0.00000000E+00
  0.00000000E+00  0.00000000E+00  0.00000000E+00
