Ca1 Co4 P6 O24                          
   1.00000000000000     
     2.6319140496717170    6.9449916465104469    4.5434377890194151
     0.3232313245527543    0.3242868782650265    8.7147529286304195
     7.2967555464423768    0.2756575839628616    4.5723689353043691
   Ca   Co   P    O 
     1     4     6    24
Direct
  0.4965890497653902  0.4984391035180380  0.4978353076393631
  0.6434521433251774  0.6406025516089997  0.6416870338343372
  0.1454495513896177  0.1455387386986047  0.1447063195711777
  0.8491378054867056  0.8498530819968693  0.8501272133398174
  0.3519246115051686  0.3543037776794904  0.3530542761597673
  0.2398706026997957  0.5344574260785819  0.9604283885551865
  0.0390323624678075  0.7521279159924177  0.4568330592252039
  0.9562167261703323  0.2423332338661908  0.5385401052921850
  0.4613803100310676  0.0370978261969128  0.7506589276785576
  0.5342279790130604  0.9578214238899534  0.2441904986445849
  0.7547120939431693  0.4615054091986508  0.0342879427886942
  0.6148699113660143  0.7477608016625510  0.3873821190393016
  0.3158978150387739  0.0038789985401806  0.9665174637165492
  0.3792905526803096  0.6158398713798050  0.7518539614339375
  0.9696131363178608  0.3169724339208742  0.9988992681664612
  0.7454891303910856  0.3786335853195339  0.6197761412568354
  0.0011141038022018  0.9706996386890765  0.3188826175041015
  0.9949331137081927  0.0231988656167132  0.6755386330948241
  0.6148165918370836  0.3808315931624762  0.2430704335094660
  0.6792852221597272  0.9914561709307605  0.0282639927326755
  0.2495947538660843  0.6153424649019925  0.3760775112442118
  0.0241376384901670  0.6773439557735728  0.9969963556229828
  0.3813433567557638  0.2471353431467591  0.6070261820279370
  0.2633713659842272  0.3406313761967326  0.9700266855824751
  0.8905646663143756  0.6948642074769680  0.4796357528127331
  0.9744870988539063  0.2681180605768176  0.3373146822598940
  0.4989020831753948  0.8834606690855082  0.6910162245229259
  0.3407874059462301  0.9676245963363499  0.2660629693605472
  0.6967543606712496  0.4985512257417426  0.8759377158392780
  0.2975118183111789  0.4967471254868912  0.1192540260252457
  0.0203943120943535  0.7254006338483805  0.6585719047346146
  0.1049751745314467  0.2992994807602543  0.5154002474033561
  0.6547639473196156  0.0273613898458009  0.7286965036810287
  0.4969661894854127  0.1114713680994370  0.3036381224294473
  0.7305430151020573  0.6556956547761317  0.0242114132703009
 
  0.00000000E+00  0.00000000E+00  0.00000000E+00
  0.00000000E+00  0.00000000E+00  0.00000000E+00
  0.00000000E+00  0.00000000E+00  0.00000000E+00
  0.00000000E+00  0.00000000E+00  0.00000000E+00
  0.00000000E+00  0.00000000E+00  0.00000000E+00
  0.00000000E+00  0.00000000E+00  0.00000000E+00
  0.00000000E+00  0.00000000E+00  0.00000000E+00
  0.00000000E+00  0.00000000E+00  0.00000000E+00
  0.00000000E+00  0.00000000E+00  0.00000000E+00
  0.00000000E+00  0.00000000E+00  0.00000000E+00
  0.00000000E+00  0.00000000E+00  0.00000000E+00
  0.00000000E+00  0.00000000E+00  0.00000000E+00
  0.00000000E+00  0.00000000E+00  0.00000000E+00
  0.00000000E+00  0.00000000E+00  0.00000000E+00
  0.00000000E+00  0.00000000E+00  0.00000000E+00
  0.00000000E+00  0.00000000E+00  0.00000000E+00
  0.00000000E+00  0.00000000E+00  0.00000000E+00
  0.00000000E+00  0.00000000E+00  0.00000000E+00
  0.00000000E+00  0.00000000E+00  0.00000000E+00
  0.00000000E+00  0.00000000E+00  0.00000000E+00
  0.00000000E+00  0.00000000E+00  0.00000000E+00
  0.00000000E+00  0.00000000E+00  0.00000000E+00
  0.00000000E+00  0.00000000E+00  0.00000000E+00
  0.00000000E+00  0.00000000E+00  0.00000000E+00
  0.00000000E+00  0.00000000E+00  0.00000000E+00
  0.00000000E+00  0.00000000E+00  0.00000000E+00
  0.00000000E+00  0.00000000E+00  0.00000000E+00
  0.00000000E+00  0.00000000E+00  0.00000000E+00
  0.00000000E+00  0.00000000E+00  0.00000000E+00
  0.00000000E+00  0.00000000E+00  0.00000000E+00
  0.00000000E+00  0.00000000E+00  0.00000000E+00
  0.00000000E+00  0.00000000E+00  0.00000000E+00
  0.00000000E+00  0.00000000E+00  0.00000000E+00
  0.00000000E+00  0.00000000E+00  0.00000000E+00
  0.00000000E+00  0.00000000E+00  0.00000000E+00
