Cr2 S2                                  
   1.00000000000000     
    -1.8643002220565064   -2.9826767349564909    0.3798184734045624
    -1.8642984410507430    2.9826758463692533    0.3798209171300174
    -0.0329262420577399   -0.0000025162331354   -6.1753505910771995
   Cr   S 
     2     2
Direct
  0.0000367767514007  0.9999842428160690  0.5000122344030018
  0.9999842724974286  0.0000367941642452  0.0000121120020964
  0.3201323066817352  0.6798463161764587  0.2499880376829395
  0.6798466440694355  0.3201326468432271  0.7499876159119552
 
  0.00000000E+00  0.00000000E+00  0.00000000E+00
  0.00000000E+00  0.00000000E+00  0.00000000E+00
  0.00000000E+00  0.00000000E+00  0.00000000E+00
  0.00000000E+00  0.00000000E+00  0.00000000E+00
