V8 S8 O44                               
   1.00000000000000     
     9.1788605952589570    0.0000008121030408   -2.4023797073574022
     0.0000009583699053    8.9249836898362922    0.0000007134468997
    -0.0255686879077054    0.0000007701509564    9.8862101729811300
   V    S    O 
     8     8    44
Direct
  0.3801627572285546  0.8730132330356791  0.1752866212836534
  0.1198370282323745  0.3730110622641195  0.8247124328275529
  0.6198365761662229  0.1269893688986127  0.8247124936189487
  0.8801625144231314  0.6269867128725747  0.1752866014608114
  0.6436145866956184  0.1287658262250631  0.3342687174461424
  0.8563875268847475  0.6287697014034769  0.6657381235436096
  0.3563874082339591  0.8712305963861645  0.6657379277505943
  0.1436145113275323  0.3712333376093064  0.3342674290238282
  0.5719693481747005  0.7839534172915394  0.4702386350732642
  0.9280302680895585  0.2839586279242810  0.5297658000310433
  0.4280299588365452  0.2160412063266219  0.5297657298865672
  0.0719692136979068  0.7160470915027219  0.4702386053464547
  0.7119816027334332  0.9256356231858255  0.1038919257650130
  0.7880228619538366  0.4256324305925319  0.8961058705093292
  0.2880227301311991  0.0743676147965733  0.8961058578443070
  0.2119817673828321  0.5743643809847222  0.1038917771741571
  0.2479672137786944  0.8894534559862033  0.2443762788176941
  0.2520124720173149  0.3894556779450241  0.7555939639088995
  0.7520120556977786  0.1105444826857005  0.7555942592917056
  0.7479669640166563  0.6105464940561283  0.2443762366337274
  0.6516935456483227  0.2679400067855065  0.2374420438374062
  0.8483006279655889  0.7679273614448388  0.7625802745758623
  0.3483008538225364  0.7320730645310420  0.7625801681339869
  0.1516929067167340  0.2320590119793162  0.2374410342103717
  0.4798438349462316  0.0392438027618063  0.2401950159169917
  0.0201513550806571  0.5392422409145284  0.7598075225248389
  0.5201512049981142  0.9607578815021622  0.7598076675752548
  0.9798438992607214  0.4607561352702121  0.2401946229585766
  0.8311699463944431  0.8259799996226233  0.0889899342241856
  0.6688303660215649  0.3259816679409412  0.9110081767618626
  0.1688303546964312  0.1740185005793579  0.9110081675574732
  0.3311701663833160  0.6740198955485108  0.0889898444726989
  0.7139989474302070  0.0539404429255850  0.0104020572622060
  0.7860117380408005  0.5539442017530387  0.9895900915862013
  0.2860118741726829  0.9460557047576996  0.9895900627578033
  0.2139991819953352  0.4460597398434466  0.0104019401036659
  0.7531442481366643  0.9841614085251597  0.2500447087120032
  0.7468599190268732  0.4841533923860247  0.7499515814696608
  0.2468598669768285  0.0158466320483651  0.7499516242461143
  0.2531443179185790  0.5158379156638990  0.2500444394536113
  0.5730013702177155  0.8507676468976949  0.0717638890159794
  0.9270040317738557  0.3507644115918351  0.9282352090951477
  0.4270040466948721  0.1492357434001652  0.9282353170813946
  0.0730015210984702  0.6492322954289919  0.0717638935819824
  0.6716522326835315  0.6577818848191298  0.5222130737170084
  0.8283635971125978  0.1577785004094385  0.4777807602620535
  0.3283632283624159  0.3422211778686788  0.4777799646366179
  0.1716520269418901  0.8422184888584046  0.5222129693526927
  0.4499837645465680  0.7708510809157759  0.5375961494527229
  0.0500252518961429  0.2708663656775619  0.4624196415947586
  0.5500253205023510  0.2291333859769540  0.4624201108325925
  0.9499836965205370  0.7291493041574594  0.5375961957981874
  0.5108331233580140  0.7532781236327675  0.3192979208637719
  0.9891611794951817  0.2532785011177456  0.6807072038981178
  0.4891608297522655  0.2467216546777212  0.6807070319698254
  0.0108326727645931  0.7467220760218446  0.3192979468079770
  0.6428887356738974  0.9275363813464911  0.4925950548043824
  0.8570980991217306  0.4275347150967216  0.5074030648498384
  0.3570980586283920  0.0724651340503891  0.5074032360884744
  0.1428886915197490  0.5724637792972864  0.4925951007184104
 
  0.00000000E+00  0.00000000E+00  0.00000000E+00
  0.00000000E+00  0.00000000E+00  0.00000000E+00
  0.00000000E+00  0.00000000E+00  0.00000000E+00
  0.00000000E+00  0.00000000E+00  0.00000000E+00
  0.00000000E+00  0.00000000E+00  0.00000000E+00
  0.00000000E+00  0.00000000E+00  0.00000000E+00
  0.00000000E+00  0.00000000E+00  0.00000000E+00
  0.00000000E+00  0.00000000E+00  0.00000000E+00
  0.00000000E+00  0.00000000E+00  0.00000000E+00
  0.00000000E+00  0.00000000E+00  0.00000000E+00
  0.00000000E+00  0.00000000E+00  0.00000000E+00
  0.00000000E+00  0.00000000E+00  0.00000000E+00
  0.00000000E+00  0.00000000E+00  0.00000000E+00
  0.00000000E+00  0.00000000E+00  0.00000000E+00
  0.00000000E+00  0.00000000E+00  0.00000000E+00
  0.00000000E+00  0.00000000E+00  0.00000000E+00
  0.00000000E+00  0.00000000E+00  0.00000000E+00
  0.00000000E+00  0.00000000E+00  0.00000000E+00
  0.00000000E+00  0.00000000E+00  0.00000000E+00
  0.00000000E+00  0.00000000E+00  0.00000000E+00
  0.00000000E+00  0.00000000E+00  0.00000000E+00
  0.00000000E+00  0.00000000E+00  0.00000000E+00
  0.00000000E+00  0.00000000E+00  0.00000000E+00
  0.00000000E+00  0.00000000E+00  0.00000000E+00
  0.00000000E+00  0.00000000E+00  0.00000000E+00
  0.00000000E+00  0.00000000E+00  0.00000000E+00
  0.00000000E+00  0.00000000E+00  0.00000000E+00
  0.00000000E+00  0.00000000E+00  0.00000000E+00
  0.00000000E+00  0.00000000E+00  0.00000000E+00
  0.00000000E+00  0.00000000E+00  0.00000000E+00
  0.00000000E+00  0.00000000E+00  0.00000000E+00
  0.00000000E+00  0.00000000E+00  0.00000000E+00
  0.00000000E+00  0.00000000E+00  0.00000000E+00
  0.00000000E+00  0.00000000E+00  0.00000000E+00
  0.00000000E+00  0.00000000E+00  0.00000000E+00
  0.00000000E+00  0.00000000E+00  0.00000000E+00
  0.00000000E+00  0.00000000E+00  0.00000000E+00
  0.00000000E+00  0.00000000E+00  0.00000000E+00
  0.00000000E+00  0.00000000E+00  0.00000000E+00
  0.00000000E+00  0.00000000E+00  0.00000000E+00
  0.00000000E+00  0.00000000E+00  0.00000000E+00
  0.00000000E+00  0.00000000E+00  0.00000000E+00
  0.00000000E+00  0.00000000E+00  0.00000000E+00
  0.00000000E+00  0.00000000E+00  0.00000000E+00
  0.00000000E+00  0.00000000E+00  0.00000000E+00
  0.00000000E+00  0.00000000E+00  0.00000000E+00
  0.00000000E+00  0.00000000E+00  0.00000000E+00
  0.00000000E+00  0.00000000E+00  0.00000000E+00
  0.00000000E+00  0.00000000E+00  0.00000000E+00
  0.00000000E+00  0.00000000E+00  0.00000000E+00
  0.00000000E+00  0.00000000E+00  0.00000000E+00
  0.00000000E+00  0.00000000E+00  0.00000000E+00
  0.00000000E+00  0.00000000E+00  0.00000000E+00
  0.00000000E+00  0.00000000E+00  0.00000000E+00
  0.00000000E+00  0.00000000E+00  0.00000000E+00
  0.00000000E+00  0.00000000E+00  0.00000000E+00
  0.00000000E+00  0.00000000E+00  0.00000000E+00
  0.00000000E+00  0.00000000E+00  0.00000000E+00
  0.00000000E+00  0.00000000E+00  0.00000000E+00
  0.00000000E+00  0.00000000E+00  0.00000000E+00
