Ca1 V4 S6 O24
1.0
7.386518 -0.051913 5.026396
2.419833 6.598603 5.505271
0.056673 -0.600215 8.921506
Ca V S O
1 4 6 24
direct
0.442240 0.580535 0.532114 Ca
0.648208 0.644347 0.645800 V
0.143360 0.147542 0.145413 V
0.846794 0.847858 0.847333 V
0.353827 0.350881 0.347404 V
0.953595 0.248758 0.531816 S
0.456346 0.042249 0.746907 S
0.535717 0.957228 0.246348 S
0.746509 0.457716 0.042331 S
0.247778 0.535179 0.953293 S
0.044033 0.745705 0.460992 S
0.386132 0.605922 0.757160 O
0.935176 0.312608 0.032664 O
0.768653 0.389426 0.603260 O
0.036774 0.933197 0.314859 O
0.603976 0.764783 0.387911 O
0.314554 0.033127 0.937163 O
0.672883 0.964963 0.053374 O
0.229094 0.600469 0.401141 O
0.054822 0.679480 0.966720 O
0.390949 0.231084 0.605233 O
0.967823 0.055179 0.675446 O
0.605108 0.398015 0.233797 O
0.957759 0.268406 0.355115 O
0.482012 0.893181 0.704560 O
0.345182 0.978717 0.275405 O
0.699142 0.483574 0.897067 O
0.263817 0.354708 0.969529 O
0.891242 0.708727 0.494660 O
0.109503 0.284601 0.496325 O
0.636767 0.025589 0.729604 O
0.517005 0.104424 0.283683 O
0.737213 0.636341 0.019282 O
0.295179 0.506319 0.099443 O
0.031253 0.732186 0.639466 O
