Mn12 P4                                 
   1.00000000000000     
     0.0277254347725146    0.0424726699240579   -5.0572974109595137
    -5.0027232070447214   -4.9455688361169994   -2.4444188419580475
    -4.9721862356046875    4.9579484977743755   -2.5290705457002498
   Mn   P 
    12     4
Direct
  0.1425273644662572  0.0182005911731997  0.1910366489263235
  0.3465509910343091  0.9740313248606152  0.8045101223806104
  0.6714029942935634  0.1871865904505019  0.9785730206763237
  0.8509468996936644  0.8061150416966762  0.0173206310079917
  0.9602517338641092  0.6759655797725538  0.3847321975934631
  0.0196328423967483  0.3245431895528015  0.6153947154086152
  0.6578148260892858  0.3863621681831044  0.3271356472801007
  0.3533943587208791  0.6216207217742593  0.6788669035665044
  0.5449371421354787  0.0394053706904990  0.3819687929011436
  0.9612017429558023  0.9588950490655741  0.6208915987449336
  0.0721250777184263  0.3929763223826412  0.9566444448983774
  0.4157582840062594  0.6158632163015957  0.0350525756881848
  0.4501621416315046  0.7401348971459973  0.3477619415701657
  0.5310193501052914  0.2618154108287898  0.6637554744904505
  0.2150339621934826  0.3380626434586236  0.2543783318573154
  0.8072402886949456  0.6588218826625805  0.7419769530094967
 
  0.00000000E+00  0.00000000E+00  0.00000000E+00
  0.00000000E+00  0.00000000E+00  0.00000000E+00
  0.00000000E+00  0.00000000E+00  0.00000000E+00
  0.00000000E+00  0.00000000E+00  0.00000000E+00
  0.00000000E+00  0.00000000E+00  0.00000000E+00
  0.00000000E+00  0.00000000E+00  0.00000000E+00
  0.00000000E+00  0.00000000E+00  0.00000000E+00
  0.00000000E+00  0.00000000E+00  0.00000000E+00
  0.00000000E+00  0.00000000E+00  0.00000000E+00
  0.00000000E+00  0.00000000E+00  0.00000000E+00
  0.00000000E+00  0.00000000E+00  0.00000000E+00
  0.00000000E+00  0.00000000E+00  0.00000000E+00
  0.00000000E+00  0.00000000E+00  0.00000000E+00
  0.00000000E+00  0.00000000E+00  0.00000000E+00
  0.00000000E+00  0.00000000E+00  0.00000000E+00
  0.00000000E+00  0.00000000E+00  0.00000000E+00
