Ca1 V4 S6 O24                           
   1.00000000000000     
     7.3650399999999996   -0.0460770000000000    5.0629749999999998
     2.4318140000000001    6.5699030000000000    5.5532750000000002
     0.0697170000000000   -0.6026330000000000    8.9213649999999998
   Ca   V    S    O 
     1     4     6    24
Direct
  0.4235163822373125  0.5829108228154184  0.5001835801726652
  0.6425895156459821  0.6482214755757701  0.6500779402423624
  0.1434831960926466  0.1540526738647041  0.1480781383863553
  0.8461664663627625  0.8476538917871613  0.8480010271915257
  0.3485121050094909  0.3509493397880441  0.3594196536564875
  0.9551681685677708  0.2518056256727342  0.5319666395551702
  0.4524067359411729  0.0441783910289673  0.7499218014914137
  0.5401983357802517  0.9598205863251397  0.2456264057498348
  0.7385830510132675  0.4680045354927793  0.0520797372779457
  0.2444028775712834  0.5365291418361227  0.9595557474695798
  0.0355215074554894  0.7547015991873524  0.4552204342448207
  0.3794717902916206  0.6205528883046577  0.7621468474017370
  0.9405896936639881  0.3318913558642834  0.0200559632470466
  0.7577902654750412  0.3830657526170645  0.6166088899221276
  0.0028169809713853  0.9600040796025604  0.3337971705148002
  0.6169964255097092  0.7589265143466216  0.3821997047728586
  0.3178874819491005  0.0174687045864876  0.9530557554000498
  0.6744525612757039  0.9837011933673532  0.0450062059647589
  0.2370790652486378  0.6318437925338309  0.3610958313577422
  0.0452370596652308  0.6775008941400115  0.9766088885478772
  0.3761222731703120  0.2494849978989085  0.6205623003613950
  0.9755525337693705  0.0468344435698610  0.6535178970791815
  0.6072661274630403  0.3876757193224634  0.2520481252337836
  0.9785562864894441  0.2951896177926069  0.3351456283758912
  0.4717733128222752  0.9100246094893123  0.6912821475609673
  0.3519119662054404  0.9680568821381106  0.2788932993935918
  0.6797558896425652  0.5074711283090019  0.9078993381877568
  0.2754443022175102  0.3551134397133027  0.9613248182681899
  0.8955951617661055  0.7001516384729306  0.4828463581240168
  0.1039755851649398  0.2859233729724956  0.5186019141624310
  0.6452204888426494  0.0109431597126549  0.7249329840278017
  0.5120017286083287  0.1039611554622624  0.2955048511118772
  0.7146539907272667  0.6521159032985828  0.0411593469546679
  0.2910445458504050  0.5018108362904896  0.1091348231326645
  0.0361682062594424  0.7085830818686666  0.6439019131128509
 
             NaN             NaN             NaN
             NaN             NaN             NaN
             NaN             NaN             NaN
             NaN             NaN             NaN
             NaN             NaN             NaN
             NaN             NaN             NaN
             NaN             NaN             NaN
             NaN             NaN             NaN
             NaN             NaN             NaN
             NaN             NaN             NaN
             NaN             NaN             NaN
             NaN             NaN             NaN
             NaN             NaN             NaN
             NaN             NaN             NaN
             NaN             NaN             NaN
             NaN             NaN             NaN
             NaN             NaN             NaN
             NaN             NaN             NaN
             NaN             NaN             NaN
             NaN             NaN             NaN
             NaN             NaN             NaN
             NaN             NaN             NaN
             NaN             NaN             NaN
             NaN             NaN             NaN
             NaN             NaN             NaN
             NaN             NaN             NaN
             NaN             NaN             NaN
             NaN             NaN             NaN
             NaN             NaN             NaN
             NaN             NaN             NaN
             NaN             NaN             NaN
             NaN             NaN             NaN
             NaN             NaN             NaN
             NaN             NaN             NaN
             NaN             NaN             NaN
