Ca1 V4 S6 O24                           
   1.00000000000000     
     7.3650399999999996   -0.0460770000000000    5.0629749999999998
     2.4318140000000001    6.5699030000000000    5.5532750000000002
     0.0697170000000000   -0.6026330000000000    8.9213649999999998
   Ca   V    S    O 
     1     4     6    24
Direct
  0.4250193914492822  0.5793860171958040  0.4973280665690156
  0.6448886118608620  0.6466477395938149  0.6488450225401567
  0.1441610108094580  0.1536311340408183  0.1469303366360137
  0.8429564249020928  0.8503314629306081  0.8501674448084187
  0.3470273283740800  0.3539711992442506  0.3568102420622331
  0.9517918084689223  0.2547955049387259  0.5307929530988322
  0.4493355350785105  0.0395815690259364  0.7561343977668795
  0.5389967858650651  0.9589491329538465  0.2495898040162312
  0.7338866810469505  0.4717202024462583  0.0484163584247954
  0.2512104818593862  0.5272890844782001  0.9637770002908060
  0.0361681191241754  0.7521114760530327  0.4569393662988541
  0.3804437967887134  0.6221347731194871  0.7617889408316100
  0.9439741370319936  0.3297498264248350  0.0203934486885837
  0.7609064539076020  0.3831651761109139  0.6136699394654858
  0.0050748294801474  0.9597499940775778  0.3318433929895228
  0.6144028910694872  0.7610834130975010  0.3821535271272522
  0.3186078237289194  0.0145550893801646  0.9513904922384558
  0.6708826687429529  0.9876458101177044  0.0440448169362394
  0.2375569004300885  0.6319244953369875  0.3598983660568102
  0.0392429927070276  0.6807938006094686  0.9778621610988975
  0.3750144044319195  0.2547032122174019  0.6199100282151150
  0.9753446697059385  0.0451821950476756  0.6528462782667619
  0.6071801351048774  0.3857961032295290  0.2548181394404360
  0.9792134962015460  0.2957720213244565  0.3346543991985212
  0.4696636266048270  0.9126369276020647  0.6910255348558278
  0.3514790778829008  0.9666661360460100  0.2774185226632062
  0.6819032941905565  0.5048563041924702  0.9134301876668145
  0.2757947577809569  0.3568583789721835  0.9613376039516589
  0.8969140936768361  0.7011085840029486  0.4813867983969253
  0.1068824744885652  0.2862506576406275  0.5185728593076934
  0.6427660444580197  0.0146011577109412  0.7233938026115497
  0.5124707781157947  0.1038930969240439  0.2968061995902746
  0.7157733166548073  0.6514412330348964  0.0436494987565033
  0.2924242540412210  0.5002520202524792  0.1067646777981180
  0.0385787058217978  0.7078482242456857  0.6426618048115355
 
             NaN             NaN             NaN
             NaN             NaN             NaN
             NaN             NaN             NaN
             NaN             NaN             NaN
             NaN             NaN             NaN
             NaN             NaN             NaN
             NaN             NaN             NaN
             NaN             NaN             NaN
             NaN             NaN             NaN
             NaN             NaN             NaN
             NaN             NaN             NaN
             NaN             NaN             NaN
             NaN             NaN             NaN
             NaN             NaN             NaN
             NaN             NaN             NaN
             NaN             NaN             NaN
             NaN             NaN             NaN
             NaN             NaN             NaN
             NaN             NaN             NaN
             NaN             NaN             NaN
             NaN             NaN             NaN
             NaN             NaN             NaN
             NaN             NaN             NaN
             NaN             NaN             NaN
             NaN             NaN             NaN
             NaN             NaN             NaN
             NaN             NaN             NaN
             NaN             NaN             NaN
             NaN             NaN             NaN
             NaN             NaN             NaN
             NaN             NaN             NaN
             NaN             NaN             NaN
             NaN             NaN             NaN
             NaN             NaN             NaN
             NaN             NaN             NaN
