Ca1 Cr4 P6 O24                          
   1.00000000000000     
     2.6526839999999998    6.9010100000000003    4.5105540000000000
     0.3609060000000000    0.1866380000000000    8.6505189999999992
     7.3965389999999998    0.1980000000000000    4.4559059999999997
   Ca   Cr   P    O 
     1     4     6    24
Direct
  0.3563689537742555  0.6362187982675797  0.5303331140184069
  0.6531170388171019  0.6361626923539158  0.6415238467705652
  0.1458423554211414  0.1494948410536831  0.1371202656697109
  0.8435185101642111  0.8546559187160496  0.8586179519091265
  0.3478712526794823  0.3540965928819280  0.3647727854258356
  0.2490075362055326  0.5204118740843694  0.9735574270304365
  0.0158928361320813  0.7605622742484467  0.4533361083600244
  0.9688661489254111  0.2457288865161038  0.5323177008500225
  0.4653543249321721  0.0376937300975601  0.7485531014178647
  0.5343082869125132  0.9645835918120561  0.2476076417834804
  0.7417573928302640  0.4749437562744755  0.0391019360134502
  0.5883846694503015  0.7601638014676456  0.4077074488492619
  0.3008313394357243  0.0216156198884559  0.9524809130309100
  0.4029501970761425  0.6011505187687904  0.7810379884689916
  0.9509438726393452  0.3274922677683952  0.0284328767991058
  0.7623572406993595  0.3947431564890122  0.6026283840616162
  0.0052427152542739  0.9687424878173200  0.3119125826158815
  0.9887350476943663  0.0337642154207966  0.6729877914102239
  0.5863454956784345  0.4017928926219861  0.2319298217148817
  0.7027723404517510  0.9723149673875036  0.0474443376156736
  0.2252056514463291  0.6118602454390464  0.3882934435657907
  0.0467070224583588  0.6709683093384190  0.9615996667693336
  0.3984700268250583  0.2448463556994822  0.5988988324275802
  0.2872953736874754  0.3285463958866059  0.9682163749132759
  0.8740405089043493  0.7047964311851621  0.4609525284355939
  1.0081775815442449  0.2745957073228619  0.3241215222321832
  0.5144980553629122  0.8773567049443136  0.6877374323475748
  0.3461377429061827  0.9708530796731796  0.2581697911952736
  0.7168311565815051  0.5018895794307299  0.8636880604218737
  0.2726430492224744  0.4981338622285613  0.1455667506485259
 -0.0077770412212393  0.7304209440063681  0.6583972330689284
  0.1201046631618222  0.2953942380230871  0.5225710595219901
  0.6522738545736307  0.0226375110701495  0.7459675207330411
  0.4947009781407962  0.1231220577533561  0.3022139519005375
  0.7097484579498620  0.6711447999878746  0.0301528224862281
 
             NaN             NaN             NaN
             NaN             NaN             NaN
             NaN             NaN             NaN
             NaN             NaN             NaN
             NaN             NaN             NaN
             NaN             NaN             NaN
             NaN             NaN             NaN
             NaN             NaN             NaN
             NaN             NaN             NaN
             NaN             NaN             NaN
             NaN             NaN             NaN
             NaN             NaN             NaN
             NaN             NaN             NaN
             NaN             NaN             NaN
             NaN             NaN             NaN
             NaN             NaN             NaN
             NaN             NaN             NaN
             NaN             NaN             NaN
             NaN             NaN             NaN
             NaN             NaN             NaN
             NaN             NaN             NaN
             NaN             NaN             NaN
             NaN             NaN             NaN
             NaN             NaN             NaN
             NaN             NaN             NaN
             NaN             NaN             NaN
             NaN             NaN             NaN
             NaN             NaN             NaN
             NaN             NaN             NaN
             NaN             NaN             NaN
             NaN             NaN             NaN
             NaN             NaN             NaN
             NaN             NaN             NaN
             NaN             NaN             NaN
             NaN             NaN             NaN
