Ca1 Cr4 P6 O24
1.0
2.652684 6.901010 4.510554
0.360906 0.186638 8.650519
7.396539 0.198000 4.455906
Ca Cr P O
1 4 6 24
direct
0.422202 0.597131 0.536550 Ca
0.644574 0.640253 0.644358 Cr
0.143018 0.142841 0.141087 Cr
0.854024 0.849550 0.851642 Cr
0.353938 0.351423 0.353844 Cr
0.247239 0.528489 0.962867 P
0.033815 0.748027 0.465408 P
0.959975 0.250112 0.525779 P
0.466877 0.030963 0.747664 P
0.530957 0.966009 0.245470 P
0.747481 0.463029 0.034734 P
0.595447 0.764148 0.402134 O
0.314517 0.021308 0.955360 O
0.397938 0.599557 0.760031 O
0.951428 0.307707 0.019836 O
0.761125 0.402832 0.590399 O
0.022977 0.949661 0.306229 O
0.968146 0.044279 0.681036 O
0.595430 0.403345 0.238458 O
0.683098 0.975427 0.042221 O
0.231148 0.591812 0.396636 O
0.044898 0.689578 0.974066 O
0.396089 0.234249 0.596521 O
0.261111 0.341104 0.973703 O
0.868896 0.701092 0.504577 O
0.980971 0.265790 0.330435 O
0.485207 0.873590 0.704072 O
0.331570 0.985034 0.271814 O
0.694445 0.488854 0.877526 O
0.299693 0.494341 0.123220 O
0.032208 0.728346 0.652944 O
0.124474 0.283739 0.503574 O
0.663228 0.009391 0.726226 O
0.507830 0.124804 0.293709 O
0.738455 0.658111 0.005680 O
