Ca1 Co4 P6 O24                          
   1.00000000000000     
     2.6050810000000002    7.0675090000000003    4.4271219999999998
     0.2056910000000000    0.2403540000000000    8.7398419999999994
     7.4385659999999998    0.1952860000000000    4.4751209999999997
   Ca   Co   P    O 
     1     4     6    24
Direct
  0.2562326407642343  0.8455277918613450  0.5867712517842192
  0.6537609107430894  0.6380259782212522  0.6383556241792376
  0.1359851464917139  0.1524132116163266  0.1298185508439937
  0.8383340943316053  0.8457538686818726  0.8615364218022526
  0.3664204448264557  0.3404144437837829  0.3611478907629777
  0.2604150512297828  0.5158429606112954  0.9555338955960283
  0.0295609784433242  0.7449327026943739  0.4697167348235957
  0.9702946401039428  0.2490110092943728  0.5154433753536404
  0.4446183491136638  0.0186668678131550  0.7530043105500251
  0.5546341329640485  0.9708709383796840  0.2351678605036712
  0.7410044785458733  0.4684689066307113  0.0482786092019202
  0.5923880318487249  0.7699361830390006  0.3957380861847123
  0.2898716581320426  0.0187850942327725  0.9535718949068506
  0.4315782182758354  0.5548079866560101  0.7657210088125815
  0.9208364552872265  0.2881000757167830  0.0421137529196785
  0.8065012274259571  0.4091690775494960  0.5918018800281563
  0.0573476389123913  0.9381438047952884  0.3269345351968084
  0.9402928934364287  0.0546785293218471  0.6577624380155093
  0.5751434504417071  0.4276086240072030  0.2364759657375294
  0.7122016811850539  0.9718500590144209  0.0372975277812414
  0.1966312620669018  0.5797552878071752  0.4020606383059878
  0.0885273383031560  0.7057447446330514  0.9287025462858115
  0.4023569453567242  0.2234264837849540  0.6032761668454133
  0.2332099776645318  0.3535719720970232  0.9602980322223955
  0.8427651991293460  0.7524586109980618  0.4880129120798941
  0.9814735049347821  0.2905454764053282  0.3167600654022071
  0.4437715764394582  0.8816050153112162  0.6963021240306138
  0.3572425629153700  1.0155217603829858  0.2410998959432880
  0.6870369972170086  0.5439134066576716  0.8734307877210802
  0.3026683711517174  0.4562161647454407  0.1303443991438426
  0.0270350188757610  0.7105065248669995  0.6635069586383070
  0.1630215523519556  0.2190375669693800  0.5077811185478519
  0.6400270980417949  0.9550275362679668  0.7644130565338364
  0.5458310442028735  0.1152983914209954  0.2902622579559753
  0.7739871640553253  0.6272013300412644  0.0433515843351480
 
             NaN             NaN             NaN
             NaN             NaN             NaN
             NaN             NaN             NaN
             NaN             NaN             NaN
             NaN             NaN             NaN
             NaN             NaN             NaN
             NaN             NaN             NaN
             NaN             NaN             NaN
             NaN             NaN             NaN
             NaN             NaN             NaN
             NaN             NaN             NaN
             NaN             NaN             NaN
             NaN             NaN             NaN
             NaN             NaN             NaN
             NaN             NaN             NaN
             NaN             NaN             NaN
             NaN             NaN             NaN
             NaN             NaN             NaN
             NaN             NaN             NaN
             NaN             NaN             NaN
             NaN             NaN             NaN
             NaN             NaN             NaN
             NaN             NaN             NaN
             NaN             NaN             NaN
             NaN             NaN             NaN
             NaN             NaN             NaN
             NaN             NaN             NaN
             NaN             NaN             NaN
             NaN             NaN             NaN
             NaN             NaN             NaN
             NaN             NaN             NaN
             NaN             NaN             NaN
             NaN             NaN             NaN
             NaN             NaN             NaN
             NaN             NaN             NaN
