Ca1 Co4 P6 O24
1.0
2.605081 7.067509 4.427122
0.205691 0.240354 8.739842
7.438566 0.195286 4.475121
Ca Co P O
1 4 6 24
direct
0.311888 0.784678 0.583483 Ca
0.649514 0.637846 0.642013 Co
0.136364 0.143580 0.138476 Co
0.851265 0.848807 0.852269 Co
0.361750 0.350299 0.352581 Co
0.243613 0.532931 0.963066 P
0.034892 0.744974 0.470113 P
0.955348 0.249129 0.526368 P
0.467413 0.027939 0.745270 P
0.538064 0.966815 0.237139 P
0.746995 0.467344 0.037448 P
0.589336 0.776929 0.401800 O
0.312447 0.036954 0.941974 O
0.404926 0.580844 0.768875 O
0.934327 0.295686 0.031410 O
0.778399 0.414657 0.579535 O
0.049769 0.930671 0.300193 O
0.944299 0.058244 0.693555 O
0.588954 0.418301 0.231159 O
0.688011 0.967545 0.039866 O
0.213389 0.577326 0.420925 O
0.060827 0.711165 0.949631 O
0.412368 0.224144 0.589009 O
0.229082 0.355326 0.989197 O
0.858193 0.722385 0.505843 O
0.966402 0.251680 0.344277 O
0.467036 0.877168 0.707105 O
0.337584 0.993416 0.264799 O
0.692895 0.511165 0.873808 O
0.287429 0.496881 0.129490 O
0.030761 0.743936 0.649424 O
0.138162 0.255647 0.499163 O
0.663501 -0.012652 0.733374 O
0.516766 0.130377 0.275740 O
0.763761 0.640692 0.018240 O
