Ca4 V4 P6 O24                           
   1.00000000000000     
     2.5504020000000001    7.2558490000000004    4.3278319999999999
    -0.0041500000000000    0.0163410000000000    8.7968790000000006
     7.6703130000000002    0.0170240000000000    4.3052590000000004
   Ca   V    P    O 
     4     4     6    24
Direct
  0.2469784983060562  0.8730203238063532  0.5910279117139696
  0.9655561758312182  1.0029142759934184  0.0226030823943646
  0.4086956948954585  0.7361170867604545  0.1083879435907334
  0.1405956351254980  0.3943790926050319  0.7415975582644786
  0.6557427810401191  0.6205555879652334  0.6324737189556024
  0.1509856644714893  0.1417732925847207  0.1501722897852190
  0.8429570431706224  0.8544204019611881  0.8558336648783614
  0.3540971860291412  0.3453420118186373  0.3499958638789390
  0.2483721999121994  0.5507291628794544  0.9508183513907414
  0.0404055988411533  0.7463526586370592  0.4462948423462291
  0.9629653543672068  0.2469443529241854  0.5542497931702914
  0.4542377361804747  0.0297466979726734  0.7431669912348681
  0.5429643403686740  0.9423442160341414  0.2478422650571995
  0.7557031307212715  0.4467281625649125  0.0292376382251368
  0.5600917186486403  0.7730890435108331  0.4201677604231253
  0.2627169687911979  0.0605432730849148  0.9072321696999306
  0.4087960289685429  0.5711135950963445  0.7669534427086250
  0.9270011979525979  0.2753924560933729  0.0562144947725747
  0.7831217884753436  0.4031629671484419  0.5526739756934125
  0.0757638557100008  0.9038690290056511  0.2620505444415954
  0.9423161009435883  0.0801057492928521  0.7372941012042004
  0.5831076121917921  0.4195648415829691  0.1920839616030963
  0.7240573462808035  0.9291151453411687  0.0886464252216202
  0.2280902667765011  0.5844661575531241  0.4231397285532918
  0.0905725472616192  0.7397795147277612  0.9144285376793319
  0.4298881900858255  0.2090135878966246  0.5836949646351108
  0.1953465518154983  0.3938737227562231  0.9836017163788328
  0.8795928266287319  0.7054583048810723  0.4772239927956945
  0.0480441905741708  0.1635840305788841  0.4023375558791742
  0.4754770471668805  0.8582257193638735  0.7180313722739993
  0.3897489039040131  0.9432061323340148  0.2087618861152612
  0.7554275755895904  0.4690405726162350  0.8452175117882881
  0.2849907768654874  0.5321646771360783  0.1119785283282546
  0.0192184370996455  0.7777063532147290  0.6147976633333901
  0.1109899334567702  0.2999714126631187  0.5456305851116895
  0.6023645184182145  0.9887958600873881  0.8089604326424119
  0.4719427393997263  0.1146501068058575  0.2938294548893488
  0.7650660259958602  0.6236363469266974  0.0111404555777955
 
             NaN             NaN             NaN
             NaN             NaN             NaN
             NaN             NaN             NaN
             NaN             NaN             NaN
             NaN             NaN             NaN
             NaN             NaN             NaN
             NaN             NaN             NaN
             NaN             NaN             NaN
             NaN             NaN             NaN
             NaN             NaN             NaN
             NaN             NaN             NaN
             NaN             NaN             NaN
             NaN             NaN             NaN
             NaN             NaN             NaN
             NaN             NaN             NaN
             NaN             NaN             NaN
             NaN             NaN             NaN
             NaN             NaN             NaN
             NaN             NaN             NaN
             NaN             NaN             NaN
             NaN             NaN             NaN
             NaN             NaN             NaN
             NaN             NaN             NaN
             NaN             NaN             NaN
             NaN             NaN             NaN
             NaN             NaN             NaN
             NaN             NaN             NaN
             NaN             NaN             NaN
             NaN             NaN             NaN
             NaN             NaN             NaN
             NaN             NaN             NaN
             NaN             NaN             NaN
             NaN             NaN             NaN
             NaN             NaN             NaN
             NaN             NaN             NaN
             NaN             NaN             NaN
             NaN             NaN             NaN
             NaN             NaN             NaN
