Fe20 Si12 O48                           
   1.00000000000000     
     5.8637899259502264    5.8638716164066205    5.8638250634314781
     5.8638682702110891   -5.8640014494807549   -5.8637568964851470
    -5.8639270251350082    5.8638349620316221   -5.8636719148753569
   Fe   Si   O 
    20    12    48
Direct
  0.7500123322431591  0.6250328784596206  0.3750035348059626
  0.2500318431036561  0.8750039515653825  0.1250057408772705
  0.1249995900683629  0.7500000414122425  0.3749847177829579
  0.3750140092529435  0.2500022372353570  0.1250072817519623
  0.3750097351395425  0.6250172476085893  0.2499984603569487
  0.1250014376010640  0.8750076448792115  0.7500020191483614
  0.2500089434845663  0.3750109231888672  0.6249747539979751
  0.7500308091503172  0.1250353144900771  0.8750193583918815
  0.8750034063299026  0.2500001707380477  0.6250140860703155
  0.6249901145952848  0.7500024349737728  0.8749943231273178
  0.6250048649368196  0.3750013583946554  0.7499999121820338
  0.8750165667164254  0.1250110996288640  0.2499991444072833
  0.9999948256593498  0.9999971889213199  0.4999986746741243
  0.4999968574232554  0.4999963870203530  0.4999984356173854
  0.0000006135475701  0.4999970995665635  0.0000015885488125
  0.4999997952296269  0.9999990834969026  0.0000015618445701
  0.9999982317502472  0.5000044534615142  0.4999976447081025
  0.5000057147273367  0.0000056367882522  0.5000044011179625
  0.4999969336487950  0.4999980977394927  0.9999922984188601
  0.0000047098384570  0.9999986636497766  0.9999987073117964
  0.7500027566430489  0.3750011856205546  0.1250024366231202
  0.2500003883183339  0.1250005023808782  0.3749983622429269
  0.3750006243589254  0.7499987782822188  0.6249999417847576
  0.1249973956760755  0.2500028050678651  0.8750019383988032
  0.6250024736166750  0.8750021811198607  0.2500014748785375
  0.8749983303476156  0.6250011188934081  0.7500006564051418
  0.2499988238552433  0.6249958388739500  0.8750008036553183
  0.7499986283637696  0.8750000463018992  0.6249989094443791
  0.6249940680406283  0.2499932562642471  0.3749968208299208
  0.8749990670536647  0.7499986962843082  0.1250019517429379
  0.3749998958144118  0.1249994474101470  0.7500017868924260
  0.1250015261182753  0.3750001278794457  0.2499994553977984
  0.3957640336226191  0.3075028096990167  0.5178747712026635
  0.1042383071900232  0.1221097486330081  0.4117409658323368
  0.7103704299936524  0.1924982772477506  0.0882602001248998
  0.7896324403537776  0.3778906411475162  0.9821264604613305
  0.0882337039207712  0.2103501665321019  0.6924858684042619
  0.9821098166719366  0.2896236941148373  0.8778932422888204
  0.5178682340206819  0.8957547632327092  0.8075144937509080
  0.4117367014221571  0.6042229846696898  0.6221093410774330
  0.8778899362665911  0.4821238189160653  0.7896240401279400
  0.6924955550996970  0.5882666076192606  0.7103746334016208
  0.6220980366668911  0.9117320622027876  0.1042264362288918
  0.8075083014859246  0.0178691392180212  0.3957715985674497
  0.6042383353723508  0.6924979241901283  0.4821286145028552
  0.8957639633032457  0.8778894012743237  0.5882578530349534
  0.2896321496298242  0.8075022120417330  0.9117442377932790
  0.2103732169799315  0.6221068348405723  0.0178754490857358
  0.9117392164150999  0.7896293367109877  0.3075120116910242
  0.0178703880928239  0.7103597128964338  0.1221123870099703
  0.4821131050483061  0.1042208740795303  0.1924823593918461
  0.5882369860974919  0.3957525866182863  0.3778849527864878
  0.1220980396037419  0.5178712638539196  0.2103686516062737
  0.3075056104982110  0.4117334065238722  0.2896352660361501
  0.3778910526515915  0.0882654118012525  0.8957696485133013
  0.1924941215346294  0.9821243136674198  0.6042331386813942
  0.3778977789825646  0.7896290672470556  0.4821268046436984
  0.1924979583293265  0.7103669456239246  0.5882675309737664
  0.1220971096857042  0.1042252132073926  0.9117257392308247
  0.3075033687777804  0.3957668813459918  0.0178717124017709
  0.8957720281334574  0.5178677046803486  0.3074973698625953
  0.6042437027329157  0.4117487715632038  0.1221126426424277
  0.2103701401396378  0.0882697161936932  0.1925047515013745
  0.2896283852585952  0.9821275705686574  0.3778911670639076
  0.5882599278393243  0.6924898730772000  0.2103648150552573
  0.4821231966434780  0.8778946471511517  0.2896292223850878
  0.0178581284742805  0.8075047299952232  0.8957655204016888
  0.9117399550605469  0.6220958052785335  0.6042379388932559
  0.6220932435673774  0.2103700411015623  0.5178727429176462
  0.8075041466632200  0.2896346850137803  0.4117423057417966
  0.8778951913306869  0.8957670444182284  0.0882647061850861
  0.6925007119437225  0.6042252631871321  0.9821281951767844
  0.1042423062478477  0.4821316998636718  0.6924931024598777
  0.3957705164909697  0.5882744452234618  0.8779024056516178
  0.7896341387449297  0.9117467372483787  0.8075034363299309
  0.7103762242646710  0.0178683727034255  0.6220962019675937
  0.4117352098371470  0.3075017010357968  0.7896417371343389
  0.5178567833972281  0.1220953410406693  0.7103552945549652
  0.9821239045563388  0.1924900212752263  0.1042279045495533
  0.0882589483029435  0.3778938326274215  0.3957689472354176
 
  0.00000000E+00  0.00000000E+00  0.00000000E+00
  0.00000000E+00  0.00000000E+00  0.00000000E+00
  0.00000000E+00  0.00000000E+00  0.00000000E+00
  0.00000000E+00  0.00000000E+00  0.00000000E+00
  0.00000000E+00  0.00000000E+00  0.00000000E+00
  0.00000000E+00  0.00000000E+00  0.00000000E+00
  0.00000000E+00  0.00000000E+00  0.00000000E+00
  0.00000000E+00  0.00000000E+00  0.00000000E+00
  0.00000000E+00  0.00000000E+00  0.00000000E+00
  0.00000000E+00  0.00000000E+00  0.00000000E+00
  0.00000000E+00  0.00000000E+00  0.00000000E+00
  0.00000000E+00  0.00000000E+00  0.00000000E+00
  0.00000000E+00  0.00000000E+00  0.00000000E+00
  0.00000000E+00  0.00000000E+00  0.00000000E+00
  0.00000000E+00  0.00000000E+00  0.00000000E+00
  0.00000000E+00  0.00000000E+00  0.00000000E+00
  0.00000000E+00  0.00000000E+00  0.00000000E+00
  0.00000000E+00  0.00000000E+00  0.00000000E+00
  0.00000000E+00  0.00000000E+00  0.00000000E+00
  0.00000000E+00  0.00000000E+00  0.00000000E+00
  0.00000000E+00  0.00000000E+00  0.00000000E+00
  0.00000000E+00  0.00000000E+00  0.00000000E+00
  0.00000000E+00  0.00000000E+00  0.00000000E+00
  0.00000000E+00  0.00000000E+00  0.00000000E+00
  0.00000000E+00  0.00000000E+00  0.00000000E+00
  0.00000000E+00  0.00000000E+00  0.00000000E+00
  0.00000000E+00  0.00000000E+00  0.00000000E+00
  0.00000000E+00  0.00000000E+00  0.00000000E+00
  0.00000000E+00  0.00000000E+00  0.00000000E+00
  0.00000000E+00  0.00000000E+00  0.00000000E+00
  0.00000000E+00  0.00000000E+00  0.00000000E+00
  0.00000000E+00  0.00000000E+00  0.00000000E+00
  0.00000000E+00  0.00000000E+00  0.00000000E+00
  0.00000000E+00  0.00000000E+00  0.00000000E+00
  0.00000000E+00  0.00000000E+00  0.00000000E+00
  0.00000000E+00  0.00000000E+00  0.00000000E+00
  0.00000000E+00  0.00000000E+00  0.00000000E+00
  0.00000000E+00  0.00000000E+00  0.00000000E+00
  0.00000000E+00  0.00000000E+00  0.00000000E+00
  0.00000000E+00  0.00000000E+00  0.00000000E+00
  0.00000000E+00  0.00000000E+00  0.00000000E+00
  0.00000000E+00  0.00000000E+00  0.00000000E+00
  0.00000000E+00  0.00000000E+00  0.00000000E+00
  0.00000000E+00  0.00000000E+00  0.00000000E+00
  0.00000000E+00  0.00000000E+00  0.00000000E+00
  0.00000000E+00  0.00000000E+00  0.00000000E+00
  0.00000000E+00  0.00000000E+00  0.00000000E+00
  0.00000000E+00  0.00000000E+00  0.00000000E+00
  0.00000000E+00  0.00000000E+00  0.00000000E+00
  0.00000000E+00  0.00000000E+00  0.00000000E+00
  0.00000000E+00  0.00000000E+00  0.00000000E+00
  0.00000000E+00  0.00000000E+00  0.00000000E+00
  0.00000000E+00  0.00000000E+00  0.00000000E+00
  0.00000000E+00  0.00000000E+00  0.00000000E+00
  0.00000000E+00  0.00000000E+00  0.00000000E+00
  0.00000000E+00  0.00000000E+00  0.00000000E+00
  0.00000000E+00  0.00000000E+00  0.00000000E+00
  0.00000000E+00  0.00000000E+00  0.00000000E+00
  0.00000000E+00  0.00000000E+00  0.00000000E+00
  0.00000000E+00  0.00000000E+00  0.00000000E+00
  0.00000000E+00  0.00000000E+00  0.00000000E+00
  0.00000000E+00  0.00000000E+00  0.00000000E+00
  0.00000000E+00  0.00000000E+00  0.00000000E+00
  0.00000000E+00  0.00000000E+00  0.00000000E+00
  0.00000000E+00  0.00000000E+00  0.00000000E+00
  0.00000000E+00  0.00000000E+00  0.00000000E+00
  0.00000000E+00  0.00000000E+00  0.00000000E+00
  0.00000000E+00  0.00000000E+00  0.00000000E+00
  0.00000000E+00  0.00000000E+00  0.00000000E+00
  0.00000000E+00  0.00000000E+00  0.00000000E+00
  0.00000000E+00  0.00000000E+00  0.00000000E+00
  0.00000000E+00  0.00000000E+00  0.00000000E+00
  0.00000000E+00  0.00000000E+00  0.00000000E+00
  0.00000000E+00  0.00000000E+00  0.00000000E+00
  0.00000000E+00  0.00000000E+00  0.00000000E+00
  0.00000000E+00  0.00000000E+00  0.00000000E+00
  0.00000000E+00  0.00000000E+00  0.00000000E+00
  0.00000000E+00  0.00000000E+00  0.00000000E+00
  0.00000000E+00  0.00000000E+00  0.00000000E+00
  0.00000000E+00  0.00000000E+00  0.00000000E+00
