Co12 P7                                 
   1.00000000000000     
     8.5826275619513286   -0.0029294208504033   -0.0003496595239877
    -4.2889333200180628    7.4341883599243603    0.0006396212657744
     0.0001103800544977   -0.0001969979237007    3.5081151934958341
   Co   P 
    12     7
Direct
  0.2465505733094760  0.9749074351246407  0.0000166330956926
  0.7283482385365033  0.7534444755354347 -0.0000068808821600
  0.0250831938555774  0.2716373924164448 -0.0000101382476068
  0.4956303945033488  0.8656515713808283  0.0000016342159258
  0.3700246813178934  0.5043761877525419 -0.0000059117082367
  0.1343540070188510  0.6299793524941953  0.0000048537167807
  0.9817860557439978  0.7908178136987745  0.5000147197009900
  0.8090213100901410  0.0181907314856785  0.4999964870675196
  0.2091983652811663  0.1910061107026443  0.4999888212069787
  0.6216390559369690  0.4827687971704898  0.4999961786763809
  0.8611196230410264  0.3783510609183244  0.5000056874021239
  0.5172289206332301  0.1388683359466179  0.5000000021150305
  0.2900824447334912  0.8463723871796304  0.5000081799864484
  0.5562919193562856  0.7099150409486829  0.4999920186080662
  0.1536228237669323  0.4437122608024763  0.4999989260309456
  0.8390800351518352  0.5605656827633542 -0.0000050794858504
  0.7214944584031905  0.1609193487430735  0.9999892506716977
  0.4394380616096034  0.2785120896559256  0.0000142733829249
  0.0000058377104885  0.0000039252802351  0.0000003444463628
 
  0.00000000E+00  0.00000000E+00  0.00000000E+00
  0.00000000E+00  0.00000000E+00  0.00000000E+00
  0.00000000E+00  0.00000000E+00  0.00000000E+00
  0.00000000E+00  0.00000000E+00  0.00000000E+00
  0.00000000E+00  0.00000000E+00  0.00000000E+00
  0.00000000E+00  0.00000000E+00  0.00000000E+00
  0.00000000E+00  0.00000000E+00  0.00000000E+00
  0.00000000E+00  0.00000000E+00  0.00000000E+00
  0.00000000E+00  0.00000000E+00  0.00000000E+00
  0.00000000E+00  0.00000000E+00  0.00000000E+00
  0.00000000E+00  0.00000000E+00  0.00000000E+00
  0.00000000E+00  0.00000000E+00  0.00000000E+00
  0.00000000E+00  0.00000000E+00  0.00000000E+00
  0.00000000E+00  0.00000000E+00  0.00000000E+00
  0.00000000E+00  0.00000000E+00  0.00000000E+00
  0.00000000E+00  0.00000000E+00  0.00000000E+00
  0.00000000E+00  0.00000000E+00  0.00000000E+00
  0.00000000E+00  0.00000000E+00  0.00000000E+00
  0.00000000E+00  0.00000000E+00  0.00000000E+00
