Co12 P7
1.0
7.970000 0.000000 0.000000
-3.985000 6.902222 0.000000
0.000000 0.000000 3.203400
Co P
12 7
direct
0.249100 0.981500 0.000000 Co0+
0.732400 0.750900 0.000000 Co0+
0.018500 0.267600 0.000000 Co0+
0.492600 0.868700 0.000000 Co0+
0.376100 0.507400 0.000000 Co0+
0.131300 0.623900 0.000000 Co0+
0.987600 0.783900 0.500000 Co0+
0.796300 0.012400 0.500000 Co0+
0.216100 0.203700 0.500000 Co0+
0.615600 0.481500 0.500000 Co0+
0.865900 0.384400 0.500000 Co0+
0.518500 0.134100 0.500000 Co0+
0.283600 0.830700 0.500000 P0+
0.547100 0.716400 0.500000 P0+
0.169300 0.452900 0.500000 P0+
0.834100 0.554600 0.000000 P0+
0.720500 0.165900 0.000000 P0+
0.445400 0.279500 0.000000 P0+
0.000000 0.000000 0.000000 P0+
