Ca4 P16 O44                             
   1.00000000000000     
     6.3166252543246797   -0.0000020092188447   -6.1924554860191821
    -0.0000006858607152   12.6986791917583499    0.0000034219541872
     0.0004499655948598    0.0000032701684059   12.1716540748266322
   Ca   P    O 
     4    16    44
Direct
  0.4972061306845713  0.4710126613456727  0.7320862271596286
  0.5027936704430392  0.9710115630249960  0.7679141524534622
  0.5027936293515678  0.5289882616120585  0.2679140649219281
  0.4972062267202372  0.0289873425009925  0.2320863057894570
  0.1424993265095743  0.9977186278957806  0.8167742806126504
  0.8575032086857064  0.4977194750375240  0.6832276908966941
  0.8575033710901346  0.0022805651072274  0.1832277462333415
  0.1424994410812346  0.5022815078217001  0.3167742556454495
  0.1535826373867667  0.3405747865802841  0.7613161723410913
  0.8464166369388727  0.8405754798174612  0.7386838897884024
  0.8464167292272365  0.6594245903755533  0.2386839772432824
  0.1535827629563563  0.1594252011030590  0.2613162210141497
  0.8475909427830304  0.3353187545766976  0.1164208622635900
  0.1524108982838908  0.8353165739295326  0.3835798139634351
  0.1524106890060639  0.6646835863581011  0.8835795234816742
  0.8475907069719203  0.1646811761737358  0.6164205429276990
  0.5015135523525531  0.2115373682142891  0.5956012163275393
  0.4984878139697012  0.7115373641266340  0.9043993164522089
  0.4984876649435639  0.7884629544086539  0.4043991998063569
  0.5015130953928202  0.2884622404661888  0.0956011338754574
  0.0330912024938016  0.4045406000088578  0.7903805041104137
  0.9669091223461455  0.9045401088656853  0.7096181571965704
  0.9669091078940654  0.5954598745154714  0.2096182350665797
  0.0330913009653671  0.0954595229936796  0.2903805795576005
  0.0113199428562739  0.5975185346859286  0.7329041211376358
  0.9886828873025841  0.0975176375849772  0.7670984121144010
  0.9886828989323894  0.4024825418223163  0.2670984008228901
  0.0113200287034174  0.9024815406319415  0.2329041198281590
  0.9962399640821331  0.2517141952663028  0.6405926665761618
  0.0037570623998682  0.7517144318693635  0.8594062069062477
  0.0037570741779488  0.7482856817838363  0.3594062294448263
  0.9962398323496400  0.2482857091047310  0.1405924906877252
  0.3183528863500648  0.2745852204088536  0.9098184282606238
  0.6816493959010247  0.7745842612231273  0.5901815219779990
  0.6816490579389202  0.7254155802113638  0.0901815526957979
  0.3183527901474809  0.2254149098699458  0.4098184141981113
  0.7090088102949441  0.2682851271083977  0.1250377466949723
  0.2909937673450975  0.7682815996957086  0.3749640715233640
  0.2909938481708874  0.7317184140703059  0.8749640978590181
  0.7090087980514758  0.2317150009808094  0.6250376854691526
  0.2607071193347891  0.9744309108397389  0.9778534187133484
  0.7392949450787859  0.4744335958050991  0.5221476511506460
  0.7392950721688670  0.0255664436228612  0.0221476594586157
  0.2607071147109334  0.5255691231954621  0.4778533968532906
  0.2398247931103633  0.0165521264602492  0.7586240324586933
  0.7601772974761659  0.5165529009076442  0.7413777866032589
  0.7601774193456943  0.9834471789366926  0.2413777658366700
  0.2398248913849493  0.4834478598124437  0.2586240198685890
  0.2311674956688251  0.4020382840496958  0.7089866253703001
  0.7688311941096508  0.9020391814431084  0.7910124870442080
  0.7688316264496881  0.5979608141338462  0.2910130019247994
  0.2311675011814184  0.0979617601904739  0.2089867267204941
  0.2624719198979066  0.6060267812825286  0.0241787407203301
  0.7375279602890574  0.1060237097539862  0.4758200605743352
  0.7375276722260782  0.3939761430679934  0.9758200703618324
  0.2624721571977960  0.8939732848920440  0.5241788884441408
  0.4858183349571072  0.1968244859078370  0.1593565653020001
  0.5141788759546250  0.6968262526316068  0.3406386016010935
  0.5141806812789631  0.8031733650577275  0.8406399005598189
  0.4858185857278076  0.3031754984534437  0.6593563668385459
  0.5020532560966636  0.3974220434453046  0.1359829803458124
  0.4979360008461983  0.8974232237720218  0.3640148530009910
  0.4979358577776696  0.6025762436739284  0.8640151746303998
  0.5020533142476049  0.1025782154865166  0.6359829902920394
 
  0.00000000E+00  0.00000000E+00  0.00000000E+00
  0.00000000E+00  0.00000000E+00  0.00000000E+00
  0.00000000E+00  0.00000000E+00  0.00000000E+00
  0.00000000E+00  0.00000000E+00  0.00000000E+00
  0.00000000E+00  0.00000000E+00  0.00000000E+00
  0.00000000E+00  0.00000000E+00  0.00000000E+00
  0.00000000E+00  0.00000000E+00  0.00000000E+00
  0.00000000E+00  0.00000000E+00  0.00000000E+00
  0.00000000E+00  0.00000000E+00  0.00000000E+00
  0.00000000E+00  0.00000000E+00  0.00000000E+00
  0.00000000E+00  0.00000000E+00  0.00000000E+00
  0.00000000E+00  0.00000000E+00  0.00000000E+00
  0.00000000E+00  0.00000000E+00  0.00000000E+00
  0.00000000E+00  0.00000000E+00  0.00000000E+00
  0.00000000E+00  0.00000000E+00  0.00000000E+00
  0.00000000E+00  0.00000000E+00  0.00000000E+00
  0.00000000E+00  0.00000000E+00  0.00000000E+00
  0.00000000E+00  0.00000000E+00  0.00000000E+00
  0.00000000E+00  0.00000000E+00  0.00000000E+00
  0.00000000E+00  0.00000000E+00  0.00000000E+00
  0.00000000E+00  0.00000000E+00  0.00000000E+00
  0.00000000E+00  0.00000000E+00  0.00000000E+00
  0.00000000E+00  0.00000000E+00  0.00000000E+00
  0.00000000E+00  0.00000000E+00  0.00000000E+00
  0.00000000E+00  0.00000000E+00  0.00000000E+00
  0.00000000E+00  0.00000000E+00  0.00000000E+00
  0.00000000E+00  0.00000000E+00  0.00000000E+00
  0.00000000E+00  0.00000000E+00  0.00000000E+00
  0.00000000E+00  0.00000000E+00  0.00000000E+00
  0.00000000E+00  0.00000000E+00  0.00000000E+00
  0.00000000E+00  0.00000000E+00  0.00000000E+00
  0.00000000E+00  0.00000000E+00  0.00000000E+00
  0.00000000E+00  0.00000000E+00  0.00000000E+00
  0.00000000E+00  0.00000000E+00  0.00000000E+00
  0.00000000E+00  0.00000000E+00  0.00000000E+00
  0.00000000E+00  0.00000000E+00  0.00000000E+00
  0.00000000E+00  0.00000000E+00  0.00000000E+00
  0.00000000E+00  0.00000000E+00  0.00000000E+00
  0.00000000E+00  0.00000000E+00  0.00000000E+00
  0.00000000E+00  0.00000000E+00  0.00000000E+00
  0.00000000E+00  0.00000000E+00  0.00000000E+00
  0.00000000E+00  0.00000000E+00  0.00000000E+00
  0.00000000E+00  0.00000000E+00  0.00000000E+00
  0.00000000E+00  0.00000000E+00  0.00000000E+00
  0.00000000E+00  0.00000000E+00  0.00000000E+00
  0.00000000E+00  0.00000000E+00  0.00000000E+00
  0.00000000E+00  0.00000000E+00  0.00000000E+00
  0.00000000E+00  0.00000000E+00  0.00000000E+00
  0.00000000E+00  0.00000000E+00  0.00000000E+00
  0.00000000E+00  0.00000000E+00  0.00000000E+00
  0.00000000E+00  0.00000000E+00  0.00000000E+00
  0.00000000E+00  0.00000000E+00  0.00000000E+00
  0.00000000E+00  0.00000000E+00  0.00000000E+00
  0.00000000E+00  0.00000000E+00  0.00000000E+00
  0.00000000E+00  0.00000000E+00  0.00000000E+00
  0.00000000E+00  0.00000000E+00  0.00000000E+00
  0.00000000E+00  0.00000000E+00  0.00000000E+00
  0.00000000E+00  0.00000000E+00  0.00000000E+00
  0.00000000E+00  0.00000000E+00  0.00000000E+00
  0.00000000E+00  0.00000000E+00  0.00000000E+00
  0.00000000E+00  0.00000000E+00  0.00000000E+00
  0.00000000E+00  0.00000000E+00  0.00000000E+00
  0.00000000E+00  0.00000000E+00  0.00000000E+00
  0.00000000E+00  0.00000000E+00  0.00000000E+00
