Ca4 V4 P6 O24                           
   1.00000000000000     
     2.5554380000000001    7.2572609999999997    4.3384989999999997
    -0.0044970000000000    0.0252530000000000    8.7920370000000005
     7.6687360000000000    0.0262910000000000    4.2978310000000004
   Ca   V    P    O 
     4     4     6    24
Direct
  0.2620941802135653  0.8152746358938859  0.5736324864096302
  0.9710895604068982  0.0001802552772096  0.0138504866694941
  0.4079938041938052  0.7423136318250038  0.1000794648829452
  0.1266197674133257  0.3891424694720458  0.7464787051006310
  0.6604625297463798  0.6200932411660821  0.6347327215869952
  0.1505396411130091  0.1414574188423156  0.1502727134146273
  0.8400683903422820  0.8595205198076047  0.8548659441469795
  0.3510963638747990  0.3492637875985701  0.3528048847874740
  0.2484187599955837  0.5480988588031934  0.9536989436105363
  0.0386630691880870  0.7479532557675327  0.4424233791072242
  0.9635667350671602  0.2454159838932102  0.5527343657967659
  0.4562294284357661  0.0339038569424915  0.7434379362767174
  0.5438213842085318  0.9475929625081813  0.2487532476977023
  0.7552556845905379  0.4487335788203465  0.0349778797863446
  0.5666417073385156  0.7783853658776073  0.4213733533388469
  0.2611089838637949  0.0630140447862649  0.9059620518199857
  0.4163819086886177  0.5617642312122936  0.7755201684445271
  0.9224531315508646  0.2731405780664171  0.0636638236763274
  0.7812770588080163  0.4025441942987277  0.5584650344884984
  0.0772200380581250  0.9019178606307748  0.2570572919962970
  0.9414963405917156  0.0787854715529634  0.7343916589643763
  0.5782841145837572  0.4287231900316448  0.1943602067106084
  0.7247018223765763  0.9310854331785463  0.0882247184244328
  0.2306134546759587  0.5896856455354796  0.4306462729414728
  0.0945872997502537  0.7372582275876626  0.9051268924908049
  0.4290264902756382  0.2119314551930824  0.5842484542338066
  0.1961384338386185  0.3919413252598390  0.9830565064018855
  0.8853262334884086  0.6983417112491382  0.4676841879582084
  0.0420350890832689  0.1703846279873206  0.3966458952130542
  0.4886361439039361  0.8546369426231811  0.7243520555446716
  0.3900229563116785  0.9378342604836456  0.2178082806090687
  0.7589301893463342  0.4728671863241497  0.8479513263505672
  0.2750366651483155  0.5367580155359789  0.1180192192955687
  0.0000372161846707  0.7880006895287220  0.6118158187902275
  0.1091305816735606  0.3025236552376039  0.5437264751724723
  0.5969588394232495  1.0011659965709399  0.8146409360890262
  0.4735528595739830  0.1231105672795777  0.2863609738353360
  0.7699428384831525  0.6239609544638902  0.0154498352110079
 
             NaN             NaN             NaN
             NaN             NaN             NaN
             NaN             NaN             NaN
             NaN             NaN             NaN
             NaN             NaN             NaN
             NaN             NaN             NaN
             NaN             NaN             NaN
             NaN             NaN             NaN
             NaN             NaN             NaN
             NaN             NaN             NaN
             NaN             NaN             NaN
             NaN             NaN             NaN
             NaN             NaN             NaN
             NaN             NaN             NaN
             NaN             NaN             NaN
             NaN             NaN             NaN
             NaN             NaN             NaN
             NaN             NaN             NaN
             NaN             NaN             NaN
             NaN             NaN             NaN
             NaN             NaN             NaN
             NaN             NaN             NaN
             NaN             NaN             NaN
             NaN             NaN             NaN
             NaN             NaN             NaN
             NaN             NaN             NaN
             NaN             NaN             NaN
             NaN             NaN             NaN
             NaN             NaN             NaN
             NaN             NaN             NaN
             NaN             NaN             NaN
             NaN             NaN             NaN
             NaN             NaN             NaN
             NaN             NaN             NaN
             NaN             NaN             NaN
             NaN             NaN             NaN
             NaN             NaN             NaN
             NaN             NaN             NaN
