Ti4 P8                                  
   1.00000000000000     
     6.2513945527710888    0.0000000074506677   -0.0000014133283594
     0.0000000034952561    3.3738815183869941    0.0000000018858238
    -0.0000020078984684    0.0000000022146295    8.2802377266549634
   Ti   P 
     4     8
Direct
  0.7701410569186322  0.2499999991324273  0.3326419995210230
  0.2701381853081983  0.2500000075503834  0.1673580612278940
  0.2298685231279265  0.7499999991645154  0.6673602965020606
  0.7298701833791199  0.7499999940485083  0.8326388075798050
  0.3835396148312498  0.2500000004457661  0.4611295938737854
  0.8835394259966662  0.2499999965451494  0.0388706931643057
  0.6164594314112506  0.7500000008623076  0.5388726206257459
  0.1164591854648833  0.7500000006464020  0.9611274858970873
  0.4152491455191907  0.2499999992198667  0.8631373387865438
  0.9152474701685378  0.2499999986880042  0.6368619947653329
  0.5847447106585832  0.7500000025261713  0.1368649527426697
  0.0847430672157543  0.7500000011704842  0.3631361553137396
 
  0.00000000E+00  0.00000000E+00  0.00000000E+00
  0.00000000E+00  0.00000000E+00  0.00000000E+00
  0.00000000E+00  0.00000000E+00  0.00000000E+00
  0.00000000E+00  0.00000000E+00  0.00000000E+00
  0.00000000E+00  0.00000000E+00  0.00000000E+00
  0.00000000E+00  0.00000000E+00  0.00000000E+00
  0.00000000E+00  0.00000000E+00  0.00000000E+00
  0.00000000E+00  0.00000000E+00  0.00000000E+00
  0.00000000E+00  0.00000000E+00  0.00000000E+00
  0.00000000E+00  0.00000000E+00  0.00000000E+00
  0.00000000E+00  0.00000000E+00  0.00000000E+00
  0.00000000E+00  0.00000000E+00  0.00000000E+00
