Ca2 Mn4 S6 O24                          
   1.00000000000000     
     7.8043380000000004    0.1434270000000000    4.4595399999999996
     2.6935699999999998    7.3251080000000002    4.4793589999999996
     0.1195760000000000    0.1105280000000000    8.8717889999999997
   Ca   Mn   S    O 
     2     4     6    24
Direct
  0.2694578810990603  0.7971148330333421  0.5529274053249984
  0.9890945590588556  1.0068950050573642 -0.0057513760043844
  0.6620509580001008  0.6212522056124458  0.6519399725257842
  0.1494370478574690  0.1596776414428658  0.1318200742145033
  0.8223406209026713  0.8463791315036837  0.8553466604427649
  0.3588498080556449  0.3652790101297207  0.3556301522507406
  0.9737901320044443  0.2411699326648516  0.5445986214170795
  0.4308610605167315  0.0309220237630620  0.7523067022046704
  0.5526671225302290  0.9602468476950070  0.2410228143888838
  0.7505875340385586  0.4412238255432848  0.0499307044991475
  0.2514690256854062  0.5530976850515188  0.9527739423973760
  0.0376261636547451  0.7535778617697524  0.4433805229744971
  0.4125124116369732  0.5553221812108609  0.7778553966037369
  0.8935908169239885  0.2538173910610595  0.0946315849314410
  0.8036831307440394  0.3989587616494937  0.5403210645669976
  0.0651331432871908  0.8985793724527006  0.2596649404418789
  0.5715370911458241  0.7957085346330022  0.4097277102602702
  0.2455961031931418  0.0822649276235000  0.8951120347992850
  0.7275962032116925  0.9274075303569739  0.0857980944564456
  0.2181729203917508  0.6062018584460196  0.4522122422493249
  0.1029305300756661  0.7351400808239025  0.8953946598175380
  0.4485015008089409  0.1926395209917997  0.5876795684245744
  0.9412390714505340  0.0858195702712088  0.7252758802612260
  0.5860598453545095  0.4547993721620123  0.2124375033709697
  0.0418547054519099  0.1644122806513168  0.4001615000612390
  0.4435762236150216  0.8825578114438640  0.7143370863375120
  0.3982464853881209  0.9728795033628563  0.2112092979285921
  0.7137564746065697  0.4581463220332008  0.8971149534734912
  0.1989513096059610  0.4010477904265673  1.0073792869556060
  0.9022266533514612  0.6891618713624789  0.4782115688785764
  0.1185277401310634  0.2842509174076824  0.5288455649794556
  0.5703969382106826  0.9640642954212444  0.8326395147733784
  0.5156035027054544  0.1261621619960355  0.2632543556469065
  0.8264281300534698  0.5788614068616256 -0.0082194254367655
  0.2834485794897201  0.5489910744718779  0.0995789328192934
 -0.0217688013014358  0.8324673465898608  0.5853003943495467
 
             NaN             NaN             NaN
             NaN             NaN             NaN
             NaN             NaN             NaN
             NaN             NaN             NaN
             NaN             NaN             NaN
             NaN             NaN             NaN
             NaN             NaN             NaN
             NaN             NaN             NaN
             NaN             NaN             NaN
             NaN             NaN             NaN
             NaN             NaN             NaN
             NaN             NaN             NaN
             NaN             NaN             NaN
             NaN             NaN             NaN
             NaN             NaN             NaN
             NaN             NaN             NaN
             NaN             NaN             NaN
             NaN             NaN             NaN
             NaN             NaN             NaN
             NaN             NaN             NaN
             NaN             NaN             NaN
             NaN             NaN             NaN
             NaN             NaN             NaN
             NaN             NaN             NaN
             NaN             NaN             NaN
             NaN             NaN             NaN
             NaN             NaN             NaN
             NaN             NaN             NaN
             NaN             NaN             NaN
             NaN             NaN             NaN
             NaN             NaN             NaN
             NaN             NaN             NaN
             NaN             NaN             NaN
             NaN             NaN             NaN
             NaN             NaN             NaN
             NaN             NaN             NaN
