Ca2 Mn4 S6 O24
1.0
7.804338 0.143427 4.459540
2.693570 7.325108 4.479359
0.119576 0.110528 8.871789
Ca Mn S O
2 4 6 24
direct
0.310203 0.776707 0.558236 Ca
0.981442 0.997950 1.013349 Ca
0.652841 0.634882 0.647369 Mn
0.144369 0.162343 0.135400 Mn
0.826913 0.840936 0.852467 Mn
0.361308 0.360297 0.350796 Mn
0.965302 0.249747 0.543862 S
0.426827 0.034270 0.751416 S
0.553914 0.959516 0.239793 S
0.748672 0.444230 0.048993 S
0.248815 0.554326 0.948809 S
0.043445 0.751742 0.450651 S
0.400281 0.572704 0.767453 O
0.895731 0.258149 0.080795 O
0.790533 0.403080 0.555535 O
0.067329 0.902506 0.269385 O
0.570513 0.786135 0.400291 O
0.248005 0.070907 0.903255 O
0.724053 0.930662 0.079277 O
0.213922 0.592205 0.444309 O
0.092456 0.736199 0.918084 O
0.436251 0.204636 0.597117 O
0.950911 0.091596 0.725011 O
0.590302 0.445233 0.218930 O
1.012453 0.177889 0.403616 O
0.434664 0.901020 0.695772 O
0.392190 0.999426 0.205056 O
0.701715 0.476037 0.896895 O
0.196504 0.405806 0.992232 O
0.886491 0.712095 0.492663 O
0.115926 0.297334 0.506327 O
0.576225 -0.045719 0.821641 O
0.535404 0.108769 0.277071 O
0.821692 0.579457 0.002197 O
0.297413 0.529518 0.094941 O
0.009998 0.814318 0.594649 O
