Fe21 S24                                
   1.00000000000000     
     7.1961174131085652    0.0135575695478623    0.0031215709286921
    -3.5873254011011162    6.2210770722433146   -0.0088115004940410
     0.0062958951238107   -0.0046024616446442   17.4934922180242829
   Fe   S 
    21    24
Direct
  0.0044634180277276  0.9979240506385867  0.3338451272476801
  0.9915310703591590  0.9915338487493028  0.9998984368102096
  0.9995353065046031  0.0045262642758491  0.6662272925127686
  0.0046352005209294  0.0013162609095991  0.8338656002421444
  0.9974462049240487  0.9962861621850719  0.4996094250372993
  0.0002368275933079  0.0041575145268452  0.1659558471211000
  0.4878194227418797  0.9993970737408547  0.8329210166964727
  0.5125155273748422  0.5109495589090149  0.4999197469936534
  0.9998535786031871  0.4905385394128330  0.1675832880337519
  0.4876857924639503  0.4849301053647598  0.8447979587858709
  0.9991052108638628  0.5089039603451605  0.5104833087823416
  0.5133260114374929  0.0034195010619135  0.1781999571243593
  0.5124139143381836  0.9980109884776701  0.4889778825690910
  0.4848002086518889  0.4885172505323868  0.1551829120324774
  0.0029968214928593  0.5132428348412587  0.8224771017767152
  0.5053429275409930  0.4993912381513568  0.3348894140436984
  0.9919957339382515  0.4956621089783331  0.0016407563464469
  0.4996654717678756  0.0051119240103104  0.6687619880009974
  0.4948589300332407  0.9952095305399880  0.9983258522766735
  0.4999766222135905  0.5053568249070216  0.6646252040703693
  0.0066606997239477  0.5013128272078159  0.3324996298151262
  0.8308141245333897  0.6585630325869134  0.9138041120090421
  0.8268784271301016  0.1677638440036612  0.5805124555593181
  0.3412633603920688  0.1744439866269946  0.2468487038209853
  0.1698596225667031  0.8272882426823661  0.4191109335788061
  0.6576867312102574  0.8320970934725680  0.0865678388166493
  0.1742009621701189  0.3419517505455117  0.7530010799696940
  0.3271657993114373  0.1624422501149434  0.9182032973468711
  0.8366685314834252  0.6721868630033545  0.5840227402103366
  0.8376964696115125  0.1648229669661205  0.2517046449275247
  0.6726223505471501  0.8345254251239518  0.4154238515250003
  0.1612581941690424  0.3282506488424284  0.0816952288784991
  0.1635827949539851  0.8367803228333476  0.7486149407256593
  0.3174536588407292  0.6588343091659707  0.9123894494484890
  0.3413462381484543  0.6823801693181549  0.5788395850430347
  0.3424783675712112  0.6602295121241076  0.2457080307398831
  0.6828702318644781  0.3401179829880494  0.4209792835174205
  0.6577360810112358  0.3175743358463233  0.0878708073951184
  0.6596244288813431  0.3422903093595754  0.7542801064738373
  0.8309273748414426  0.1694506094467453  0.9133872591627132
  0.3382202154466691  0.1684609110059821  0.5799354828002485
  0.8314876976556566  0.6627362161873442  0.2469719907108910
  0.1694956399085160  0.3376549756121794  0.4200906728975854
  0.1691532990826123  0.8322671218691260  0.0864102449155363
  0.6626444975526452  0.8311887525083477  0.7531395132076161
 
  0.00000000E+00  0.00000000E+00  0.00000000E+00
  0.00000000E+00  0.00000000E+00  0.00000000E+00
  0.00000000E+00  0.00000000E+00  0.00000000E+00
  0.00000000E+00  0.00000000E+00  0.00000000E+00
  0.00000000E+00  0.00000000E+00  0.00000000E+00
  0.00000000E+00  0.00000000E+00  0.00000000E+00
  0.00000000E+00  0.00000000E+00  0.00000000E+00
  0.00000000E+00  0.00000000E+00  0.00000000E+00
  0.00000000E+00  0.00000000E+00  0.00000000E+00
  0.00000000E+00  0.00000000E+00  0.00000000E+00
  0.00000000E+00  0.00000000E+00  0.00000000E+00
  0.00000000E+00  0.00000000E+00  0.00000000E+00
  0.00000000E+00  0.00000000E+00  0.00000000E+00
  0.00000000E+00  0.00000000E+00  0.00000000E+00
  0.00000000E+00  0.00000000E+00  0.00000000E+00
  0.00000000E+00  0.00000000E+00  0.00000000E+00
  0.00000000E+00  0.00000000E+00  0.00000000E+00
  0.00000000E+00  0.00000000E+00  0.00000000E+00
  0.00000000E+00  0.00000000E+00  0.00000000E+00
  0.00000000E+00  0.00000000E+00  0.00000000E+00
  0.00000000E+00  0.00000000E+00  0.00000000E+00
  0.00000000E+00  0.00000000E+00  0.00000000E+00
  0.00000000E+00  0.00000000E+00  0.00000000E+00
  0.00000000E+00  0.00000000E+00  0.00000000E+00
  0.00000000E+00  0.00000000E+00  0.00000000E+00
  0.00000000E+00  0.00000000E+00  0.00000000E+00
  0.00000000E+00  0.00000000E+00  0.00000000E+00
  0.00000000E+00  0.00000000E+00  0.00000000E+00
  0.00000000E+00  0.00000000E+00  0.00000000E+00
  0.00000000E+00  0.00000000E+00  0.00000000E+00
  0.00000000E+00  0.00000000E+00  0.00000000E+00
  0.00000000E+00  0.00000000E+00  0.00000000E+00
  0.00000000E+00  0.00000000E+00  0.00000000E+00
  0.00000000E+00  0.00000000E+00  0.00000000E+00
  0.00000000E+00  0.00000000E+00  0.00000000E+00
  0.00000000E+00  0.00000000E+00  0.00000000E+00
  0.00000000E+00  0.00000000E+00  0.00000000E+00
  0.00000000E+00  0.00000000E+00  0.00000000E+00
  0.00000000E+00  0.00000000E+00  0.00000000E+00
  0.00000000E+00  0.00000000E+00  0.00000000E+00
  0.00000000E+00  0.00000000E+00  0.00000000E+00
  0.00000000E+00  0.00000000E+00  0.00000000E+00
  0.00000000E+00  0.00000000E+00  0.00000000E+00
  0.00000000E+00  0.00000000E+00  0.00000000E+00
  0.00000000E+00  0.00000000E+00  0.00000000E+00
