Ca4 V4 P6 O24
1.0
2.575581 7.262910 4.381165
-0.005886 0.060901 8.772667
7.662427 0.063357 4.268115
Ca V P O
4 4 6 24
direct
0.462176 0.576111 0.519623 Ca
0.962860 0.001761 0.021951 Ca
0.396702 0.745323 0.096149 Ca
0.115630 0.406261 0.746179 Ca
0.647348 0.638931 0.633030 V
0.147869 0.146840 0.151049 V
0.846405 0.860454 0.855243 V
0.348888 0.345112 0.351204 V
0.247595 0.554220 0.944926 P
0.037953 0.751930 0.449391 P
0.961208 0.246364 0.557083 P
0.455525 0.042304 0.743094 P
0.535399 0.940807 0.251755 P
0.747840 0.454701 0.039406 P
0.565638 0.757256 0.408778 O
0.263004 0.067283 0.907665 O
0.409293 0.570326 0.759759 O
0.920381 0.279624 0.055096 O
0.777334 0.407930 0.562358 O
0.071675 0.908882 0.263704 O
0.933086 0.086819 0.740169 O
0.580252 0.428099 0.216584 O
0.717017 0.938977 0.087208 O
0.230835 0.589328 0.423388 O
0.083050 0.738238 0.928443 O
0.424503 0.229244 0.588624 O
0.195975 0.395995 0.975953 O
0.884228 0.702800 0.477031 O
0.026895 0.184551 0.394779 O
0.485293 0.872730 0.710805 O
0.388681 0.951705 0.197522 O
0.722157 0.485674 0.866397 O
0.298282 0.526268 0.102311 O
0.007752 0.778386 0.622956 O
0.105674 0.303488 0.546748 O
0.606754 1.007629 0.799884 O
0.470885 0.103294 0.312764 O
0.767944 0.626895 0.018389 O
