Ni4 P16 O44                             
   1.00000000000000     
     9.2017936634079227    0.0000001568999874   -1.7487925919756715
     0.0000002210629973    8.0118665844156958    0.0000000434715748
    -0.0055095343595578    0.0000000964537649   11.1314694124742459
   Ni   P    O 
     4    16    44
Direct
  0.4664842158192428  0.5140399390670680  0.7194312255573081
  0.9664842665354385  0.9859599413282751  0.2194313338382941
  0.5336101339854480  0.4859579967755181  0.2805775324397359
  0.0336104179422421  0.0140421062795326  0.7805774172227800
  0.7877865687054140  0.1249712671806975  0.9576024742869862
  0.2877864211348680  0.3750286980251971  0.4576024854196348
  0.2122136602158946  0.8750348221937330  0.0423988162609277
  0.7122137325441855  0.6249652037004054  0.5423988249969440
  0.1884289113930819  0.3858598382867200  0.8247908957013905
  0.6884288483861809  0.1141402160663176  0.3247909237430449
  0.8115689883685420  0.6141505673517784  0.1752073551217279
  0.3115691364117623  0.8858494186442414  0.6752073078833476
  0.5595876691805017  0.1123549546986453  0.7451625716468868
  0.0595876336946475  0.3876450526182680  0.2451625271844264
  0.4404066230300430  0.8876507540898046  0.2548431306726187
  0.9404066308064785  0.6123492509099790  0.7548431704204148
  0.2425566518312081  0.5006001082805653  0.0728421648451416
  0.7425566309788678  0.9993999095697319  0.5728421676671118
  0.7574405099753179  0.4994012550325451  0.9271580506253301
  0.2574405653587917  0.0005987376823526  0.4271580530774841
  0.3438696064958791  0.4186762600920986  0.8322727121545910
  0.8438695783013515  0.0813238227052935  0.3322728239943515
  0.6561301963320716  0.5813051494627857  0.1677209520625595
  0.1561302981144479  0.9186947157240652  0.6677207507434133
  0.1569534311052792  0.3956899623682375  0.9643231181346295
  0.6569533262708944  0.1043100273792845  0.4643231367224843
  0.8430360561538564  0.6043245247136824  0.0356738810839374
  0.3430361736080982  0.8956754979739117  0.5356738648633339
  0.3865834179703214  0.7410187006967348  0.7360641117260585
  0.8865833518536732  0.7589812387644415  0.2360641427309886
  0.6133787308120304  0.2589566570769577  0.2639366690178591
  0.1133788167645022  0.2410434170631532  0.7639366163246208
  0.5746219241029280  0.2865200827871703  0.7101048939478645
  0.0746219576266824  0.2134798989118849  0.2101049394575298
  0.4253640040389044  0.7134898164808590  0.2899006529487735
  0.9253640276216757  0.7865102254508471  0.7899006034031260
  0.6177094864578834  0.5696095841439330  0.8720592576065869
  0.1177095262938508  0.9303903601379133  0.3720593589629999
  0.3822979631851879  0.4304139983482074  0.1279310970060834
  0.8822979588962667  0.0695860362405654  0.6279310111923095
  0.0992370251621324  0.5522866003001212  0.7688438865078240
  0.5992370174193695  0.9477133833642597  0.2688438654655556
  0.9007607176490851  0.4477146735386128  0.2311481086127998
  0.4007607284165502  0.0522853412274316  0.7311481323782800
  0.6298281001189494  0.0688462451866982  0.8798110187358290
  0.1298280692504363  0.4311537763406079  0.3798109631941671
  0.3701650230674005  0.9311592946765046  0.1201927214914065
  0.8701650571826107  0.5688406936488732  0.6201927661980946
  0.6032085458799941  0.6164836453652356  0.6207295628176865
  0.1032085607839690  0.8835164308054217  0.1207296383721825
  0.3967804534567350  0.3835169423445350  0.3792642878902797
  0.8967804966850679  0.1164829261623552  0.8792641753459947
  0.7554611315832886  0.3203295424394668  0.9797443750613581
  0.2554611120830117  0.1796704285563280  0.4797443774963810
  0.2445220391991612  0.6796806109157814  0.0202544966267482
  0.7445220615510593  0.8203194201997448  0.5202544951698442
  0.6307198649532495  0.9871814950527948  0.6633014368400296
  0.1307198614005500  0.5128185052893173  0.1633013997348272
  0.3692756717151013  0.0128402168071631  0.3366980846645262
  0.8692756739038074  0.4871597965619543  0.8366981246673362
  0.3028930293121306  0.4595360746761941  0.5761263652763873
  0.8028931477216190  0.0404639641896054  0.0761263877999028
  0.6971193161507045  0.5404323487999605  0.4238841620368845
  0.1971192470500469  0.9595676292476369  0.9238841449200308
 
  0.00000000E+00  0.00000000E+00  0.00000000E+00
  0.00000000E+00  0.00000000E+00  0.00000000E+00
  0.00000000E+00  0.00000000E+00  0.00000000E+00
  0.00000000E+00  0.00000000E+00  0.00000000E+00
  0.00000000E+00  0.00000000E+00  0.00000000E+00
  0.00000000E+00  0.00000000E+00  0.00000000E+00
  0.00000000E+00  0.00000000E+00  0.00000000E+00
  0.00000000E+00  0.00000000E+00  0.00000000E+00
  0.00000000E+00  0.00000000E+00  0.00000000E+00
  0.00000000E+00  0.00000000E+00  0.00000000E+00
  0.00000000E+00  0.00000000E+00  0.00000000E+00
  0.00000000E+00  0.00000000E+00  0.00000000E+00
  0.00000000E+00  0.00000000E+00  0.00000000E+00
  0.00000000E+00  0.00000000E+00  0.00000000E+00
  0.00000000E+00  0.00000000E+00  0.00000000E+00
  0.00000000E+00  0.00000000E+00  0.00000000E+00
  0.00000000E+00  0.00000000E+00  0.00000000E+00
  0.00000000E+00  0.00000000E+00  0.00000000E+00
  0.00000000E+00  0.00000000E+00  0.00000000E+00
  0.00000000E+00  0.00000000E+00  0.00000000E+00
  0.00000000E+00  0.00000000E+00  0.00000000E+00
  0.00000000E+00  0.00000000E+00  0.00000000E+00
  0.00000000E+00  0.00000000E+00  0.00000000E+00
  0.00000000E+00  0.00000000E+00  0.00000000E+00
  0.00000000E+00  0.00000000E+00  0.00000000E+00
  0.00000000E+00  0.00000000E+00  0.00000000E+00
  0.00000000E+00  0.00000000E+00  0.00000000E+00
  0.00000000E+00  0.00000000E+00  0.00000000E+00
  0.00000000E+00  0.00000000E+00  0.00000000E+00
  0.00000000E+00  0.00000000E+00  0.00000000E+00
  0.00000000E+00  0.00000000E+00  0.00000000E+00
  0.00000000E+00  0.00000000E+00  0.00000000E+00
  0.00000000E+00  0.00000000E+00  0.00000000E+00
  0.00000000E+00  0.00000000E+00  0.00000000E+00
  0.00000000E+00  0.00000000E+00  0.00000000E+00
  0.00000000E+00  0.00000000E+00  0.00000000E+00
  0.00000000E+00  0.00000000E+00  0.00000000E+00
  0.00000000E+00  0.00000000E+00  0.00000000E+00
  0.00000000E+00  0.00000000E+00  0.00000000E+00
  0.00000000E+00  0.00000000E+00  0.00000000E+00
  0.00000000E+00  0.00000000E+00  0.00000000E+00
  0.00000000E+00  0.00000000E+00  0.00000000E+00
  0.00000000E+00  0.00000000E+00  0.00000000E+00
  0.00000000E+00  0.00000000E+00  0.00000000E+00
  0.00000000E+00  0.00000000E+00  0.00000000E+00
  0.00000000E+00  0.00000000E+00  0.00000000E+00
  0.00000000E+00  0.00000000E+00  0.00000000E+00
  0.00000000E+00  0.00000000E+00  0.00000000E+00
  0.00000000E+00  0.00000000E+00  0.00000000E+00
  0.00000000E+00  0.00000000E+00  0.00000000E+00
  0.00000000E+00  0.00000000E+00  0.00000000E+00
  0.00000000E+00  0.00000000E+00  0.00000000E+00
  0.00000000E+00  0.00000000E+00  0.00000000E+00
  0.00000000E+00  0.00000000E+00  0.00000000E+00
  0.00000000E+00  0.00000000E+00  0.00000000E+00
  0.00000000E+00  0.00000000E+00  0.00000000E+00
  0.00000000E+00  0.00000000E+00  0.00000000E+00
  0.00000000E+00  0.00000000E+00  0.00000000E+00
  0.00000000E+00  0.00000000E+00  0.00000000E+00
  0.00000000E+00  0.00000000E+00  0.00000000E+00
  0.00000000E+00  0.00000000E+00  0.00000000E+00
  0.00000000E+00  0.00000000E+00  0.00000000E+00
  0.00000000E+00  0.00000000E+00  0.00000000E+00
  0.00000000E+00  0.00000000E+00  0.00000000E+00
