Ni4 P16 O44
1.0
9.211082 0.000000 -1.745448
0.000000 8.019000 0.000000
0.000000 0.000000 11.135000
Ni P O
4 16 44
direct
0.466880 0.514930 0.719470 Ni2+
0.966880 0.985070 0.219470 Ni2+
0.533120 0.485070 0.280530 Ni2+
0.033120 0.014930 0.780530 Ni2+
0.787270 0.125720 0.957150 P5+
0.287270 0.374280 0.457150 P5+
0.212730 0.874280 0.042850 P5+
0.712730 0.625720 0.542850 P5+
0.187760 0.386870 0.824900 P5+
0.687760 0.113130 0.324900 P5+
0.812240 0.613130 0.175100 P5+
0.312240 0.886870 0.675100 P5+
0.559980 0.111810 0.744790 P5+
0.059980 0.388190 0.244790 P5+
0.440020 0.888190 0.255210 P5+
0.940020 0.611810 0.755210 P5+
0.241860 0.500910 0.072450 P5+
0.741860 0.999090 0.572450 P5+
0.758140 0.499090 0.927550 P5+
0.258140 0.000910 0.427550 P5+
0.342880 0.419800 0.832010 O2-
0.842880 0.080200 0.332010 O2-
0.657120 0.580200 0.167990 O2-
0.157120 0.919800 0.667990 O2-
0.156240 0.396100 0.964380 O2-
0.656240 0.103900 0.464380 O2-
0.843760 0.603900 0.035620 O2-
0.343760 0.896100 0.535620 O2-
0.386800 0.742000 0.735570 O2-
0.886800 0.758000 0.235570 O2-
0.613200 0.258000 0.264430 O2-
0.113200 0.242000 0.764430 O2-
0.575300 0.285500 0.709500 O2-
0.075300 0.214500 0.209500 O2-
0.424700 0.714500 0.290500 O2-
0.924700 0.785500 0.790500 O2-
0.618700 0.569500 0.872720 O2-
0.118700 0.930500 0.372720 O2-
0.381300 0.430500 0.127280 O2-
0.881300 0.069500 0.627280 O2-
0.098960 0.552500 0.768510 O2-
0.598960 0.947500 0.268510 O2-
0.901040 0.447500 0.231490 O2-
0.401040 0.052500 0.731490 O2-
0.630000 0.069100 0.879420 O2-
0.130000 0.430900 0.379420 O2-
0.370000 0.930900 0.120580 O2-
0.870000 0.569100 0.620580 O2-
0.604300 0.617300 0.621060 O2-
0.104300 0.882700 0.121060 O2-
0.395700 0.382700 0.378940 O2-
0.895700 0.117300 0.878940 O2-
0.755000 0.320500 0.980250 O2-
0.255000 0.179500 0.480250 O2-
0.245000 0.679500 0.019750 O2-
0.745000 0.820500 0.519750 O2-
0.630200 0.985900 0.663120 O2-
0.130200 0.514100 0.163120 O2-
0.369800 0.014100 0.336880 O2-
0.869800 0.485900 0.836880 O2-
0.302700 0.459200 0.575320 O2-
0.802700 0.040800 0.075320 O2-
0.697300 0.540800 0.424680 O2-
0.197300 0.959200 0.924680 O2-
