V5 S8                                   
   1.00000000000000     
     0.0275835016390539   -3.4202961482400847   -5.6633983309326874
    -0.0267344998381360   -3.4082795169691242    5.6564375504230275
    -5.9607401978483763    3.4154360358102354    0.1808240453837579
   V    S 
     5     8
Direct
  0.0000741993872429  0.9998902704119991  0.0000043720930962
  0.7803014939720455  0.2799567045665637  0.5003644415746573
  0.2196573391174357  0.7201399539416811  0.4996638080603862
  0.7491675338502297  0.2747983745833361  0.0237738330591426
  0.2509386491542313  0.7252044174708506  0.9763369924878380
  0.3047935588455549  0.0126480263658249  0.3168589730942479
  0.6951322054402761  0.9873731104439191  0.6830910587940917
  0.7829421372364773  0.5544921194363025  0.3375478857156199
  0.2170205139997496  0.4454797067386727  0.6623418246116265
  0.7974279006386782  0.5430210080467349  0.8283482282909246
  0.7144006175755544  0.9682668550404380  0.1714951265673638
  0.2855799896344517  0.0317451653634945  0.8285261588920678
  0.2025638611480517  0.4569842875901892  0.1716472967589300
 
  0.00000000E+00  0.00000000E+00  0.00000000E+00
  0.00000000E+00  0.00000000E+00  0.00000000E+00
  0.00000000E+00  0.00000000E+00  0.00000000E+00
  0.00000000E+00  0.00000000E+00  0.00000000E+00
  0.00000000E+00  0.00000000E+00  0.00000000E+00
  0.00000000E+00  0.00000000E+00  0.00000000E+00
  0.00000000E+00  0.00000000E+00  0.00000000E+00
  0.00000000E+00  0.00000000E+00  0.00000000E+00
  0.00000000E+00  0.00000000E+00  0.00000000E+00
  0.00000000E+00  0.00000000E+00  0.00000000E+00
  0.00000000E+00  0.00000000E+00  0.00000000E+00
  0.00000000E+00  0.00000000E+00  0.00000000E+00
  0.00000000E+00  0.00000000E+00  0.00000000E+00
