Ti2 S6                                  
   1.00000000000000     
     5.0481030879593423    0.0000000277361000   -0.0403692532859101
     0.0000000054174048    3.4413688166519729    0.0000000014751407
     1.0702099030196359    0.0000000234255856    8.8923250098869229
   Ti   S 
     2     6
Direct
  0.7215132610909905  0.2500000196500594  0.6504535740514257
  0.2784994377844470  0.7499999809945450  0.3495438174220524
  0.5152407705961792  0.2499999996466471  0.1810694551032910
  0.4847768545046165  0.7499999967947701  0.8189045543200635
  0.1129112305809485  0.2499999935472914  0.1782921917714972
  0.8870884515748898  0.7500000114362066  0.8217437260580240
  0.2402956083891752  0.2500000060042140  0.5487925240007030
  0.7596743854787604  0.7499999919262663  0.4512001572729432
 
  0.00000000E+00  0.00000000E+00  0.00000000E+00
  0.00000000E+00  0.00000000E+00  0.00000000E+00
  0.00000000E+00  0.00000000E+00  0.00000000E+00
  0.00000000E+00  0.00000000E+00  0.00000000E+00
  0.00000000E+00  0.00000000E+00  0.00000000E+00
  0.00000000E+00  0.00000000E+00  0.00000000E+00
  0.00000000E+00  0.00000000E+00  0.00000000E+00
  0.00000000E+00  0.00000000E+00  0.00000000E+00
