Ca1 Co4 P6 O24                          
   1.00000000000000     
     2.6309179999999999    7.0360899999999997    4.4594310000000004
     0.2477150000000000    0.2609230000000000    8.7304320000000004
     7.4339320000000004    0.2200520000000000    4.5073049999999997
   Ca   Co   P    O 
     1     4     6    24
Direct
  0.2648889601809588  0.7776310302367512  0.5532370970402729
  0.6550306779669793  0.6323510728391289  0.6383645977819484
  0.1334944110674595  0.1532446831775310  0.1341392016348623
  0.8390088170480416  0.8533469278647957  0.8641338096591323
  0.3570501500160990  0.3498779555637189  0.3674957351473245
  0.2567178697472673  0.5189687133280558  0.9619840339541124
  0.0213014383168108  0.7443800393934518  0.4641826075206549
  0.9718052215273576  0.2465700423420775  0.5197506683874688
  0.4521720662013920  0.0260556662467706  0.7541536944742946
  0.5459564999074846  0.9723751339875376  0.2444793619491591
  0.7439077475501615  0.4720912017886441  0.0429224087501357
  0.5845143794069251  0.7673276576444221  0.4026556886634469
  0.2948716045803295  0.0160812626652659  0.9574059538752232
  0.4262097857752324  0.5648453524571457  0.7699333687673736
  0.9311600110528558  0.2957903727923187  0.0344935796405286
  0.7824911824391172  0.3861110434159777  0.6117437534278388
  0.0330674283967565  0.9478355906031251  0.3323608162409269
  0.9851664855120141  0.0347700034041896  0.6499920381345140
  0.5806309921982213  0.4186195124027848  0.2296001256691716
  0.7092115516806771  0.9712941324840980  0.0469228363825428
  0.2269940572115996  0.6005587522115223  0.4008234934501161
  0.0804113861698700  0.7022055900124458  0.9240656315781226
  0.3994089221371188  0.2318050443135618  0.6062433972609345
  0.2456263026424600  0.3484054766307963  0.9646161155289785
  0.8705119166852721  0.7151004914948759  0.4574803861012027
  0.9849002296077737  0.2894606906409125  0.3194777754359399
  0.4756938110569939  0.8814031237686378  0.6910656294245994
  0.3501199045232545  1.0118106486203429  0.2487743132769701
  0.7000835541946204  0.5376578390188185  0.8641851631416666
  0.2886879873323442  0.4790665976657377  0.1344621985524239
 -0.0133105090755707  0.7116427892405390  0.6709778741895280
  0.1413024986649079  0.2700404880878104  0.5054295224415561
  0.6404849362305216  0.9868214061325542  0.7651317719314960
  0.5339437856634607  0.1181563738924662  0.2973942416973144
  0.7587522856894900  0.6364193059963483  0.0459860696562560
 
             NaN             NaN             NaN
             NaN             NaN             NaN
             NaN             NaN             NaN
             NaN             NaN             NaN
             NaN             NaN             NaN
             NaN             NaN             NaN
             NaN             NaN             NaN
             NaN             NaN             NaN
             NaN             NaN             NaN
             NaN             NaN             NaN
             NaN             NaN             NaN
             NaN             NaN             NaN
             NaN             NaN             NaN
             NaN             NaN             NaN
             NaN             NaN             NaN
             NaN             NaN             NaN
             NaN             NaN             NaN
             NaN             NaN             NaN
             NaN             NaN             NaN
             NaN             NaN             NaN
             NaN             NaN             NaN
             NaN             NaN             NaN
             NaN             NaN             NaN
             NaN             NaN             NaN
             NaN             NaN             NaN
             NaN             NaN             NaN
             NaN             NaN             NaN
             NaN             NaN             NaN
             NaN             NaN             NaN
             NaN             NaN             NaN
             NaN             NaN             NaN
             NaN             NaN             NaN
             NaN             NaN             NaN
             NaN             NaN             NaN
             NaN             NaN             NaN
