Ca1 Co4 P6 O24
1.0
2.630918 7.036090 4.459431
0.247715 0.260923 8.730432
7.433932 0.220052 4.507305
Ca Co P O
1 4 6 24
direct
0.373395 0.689299 0.554899 Ca
0.648092 0.640294 0.643013 Co
0.137387 0.142081 0.139056 Co
0.852597 0.850900 0.853180 Co
0.357740 0.350169 0.351799 Co
0.246165 0.530759 0.960936 P
0.035604 0.744399 0.469378 P
0.956195 0.249890 0.526671 P
0.467525 0.031529 0.744803 P
0.534504 0.963413 0.241753 P
0.745937 0.467712 0.037788 P
0.596704 0.767922 0.397671 O
0.314251 0.028093 0.946468 O
0.399715 0.591392 0.762670 O
0.941375 0.303832 0.024634 O
0.769050 0.406072 0.590181 O
0.036256 0.939193 0.307268 O
0.957930 0.051720 0.687085 O
0.594392 0.406570 0.235637 O
0.684305 0.973364 0.039653 O
0.223818 0.586997 0.408318 O
0.053716 0.699028 0.961121 O
0.402912 0.231175 0.594395 O
0.245470 0.347504 0.982833 O
0.866667 0.710992 0.501668 O
0.969889 0.260402 0.339639 O
0.478018 0.879096 0.700353 O
0.336264 0.986075 0.268249 O
0.691869 0.507190 0.876268 O
0.293579 0.496466 0.124158 O
0.026728 0.734732 0.654528 O
0.129361 0.272552 0.499906 O
0.662799 -0.000578 0.728914 O
0.509646 0.124276 0.286554 O
0.748103 0.648176 0.020430 O
