Ca4 Mn4 O12                             
   1.00000000000000     
     5.2898385439207249    0.0000000847744163   -0.0000000110219475
     0.0000001247226487    7.4521329011757986    0.0000005588451463
    -0.0000000132536074    0.0000003991862417    5.2656061807156398
   Ca   Mn   O 
     4     4    12
Direct
  0.5374832093297712  0.2500000248050114  0.5071401941355589
  0.0374831779150355  0.2500000275123710  0.9928598174144980
  0.4625153413821153  0.7499999855994375  0.4928722167561048
  0.9625153328362117  0.7499999731467710  0.0071277741994820
  0.0000502875140072  0.9999895760935757  0.4999777921618076
  0.5000501262274994  0.5000104000884420  0.0000221610257540
  0.0000501618720179  0.5000103984928117  0.4999778574644864
  0.5000503063001602  0.9999895868698871  0.0000221884513323
  0.9878270603577164  0.2499999395087542  0.4307305179655501
  0.4878270505332623  0.2500000871262813  0.0692694994459941
  0.0121316162946599  0.7500000593515708  0.5692498136517656
  0.5121315955052737  0.7499999197682783  0.9307501798122928
  0.7885483149341326  0.0354782652165468  0.7894132051830169
  0.2885482055610353  0.4645217637078929  0.7105868721740336
  0.2114230548462288  0.5354814810095334  0.2105757432585023
  0.7114230215328092  0.9645185041643174  0.2894243243645747
  0.2114228984009046  0.9645184924117771  0.2105758038343879
  0.7114229533917467  0.5354814816510753  0.2894240956734748
  0.7885480956549813  0.4645217601707046  0.7894133085899355
  0.2885481896104380  0.0354782733049603  0.7105866344374405
 
  0.00000000E+00  0.00000000E+00  0.00000000E+00
  0.00000000E+00  0.00000000E+00  0.00000000E+00
  0.00000000E+00  0.00000000E+00  0.00000000E+00
  0.00000000E+00  0.00000000E+00  0.00000000E+00
  0.00000000E+00  0.00000000E+00  0.00000000E+00
  0.00000000E+00  0.00000000E+00  0.00000000E+00
  0.00000000E+00  0.00000000E+00  0.00000000E+00
  0.00000000E+00  0.00000000E+00  0.00000000E+00
  0.00000000E+00  0.00000000E+00  0.00000000E+00
  0.00000000E+00  0.00000000E+00  0.00000000E+00
  0.00000000E+00  0.00000000E+00  0.00000000E+00
  0.00000000E+00  0.00000000E+00  0.00000000E+00
  0.00000000E+00  0.00000000E+00  0.00000000E+00
  0.00000000E+00  0.00000000E+00  0.00000000E+00
  0.00000000E+00  0.00000000E+00  0.00000000E+00
  0.00000000E+00  0.00000000E+00  0.00000000E+00
  0.00000000E+00  0.00000000E+00  0.00000000E+00
  0.00000000E+00  0.00000000E+00  0.00000000E+00
  0.00000000E+00  0.00000000E+00  0.00000000E+00
  0.00000000E+00  0.00000000E+00  0.00000000E+00
