Ca4 Cr4 O12                             
   1.00000000000000     
     5.2646946904330552    0.0000062608772967   -0.0000170108891739
     0.0000056645230448    5.3615820480340020   -0.0000168692288275
    -0.0000234097944039   -0.0000201983147908    7.4321745683569986
   Ca   Cr   O 
     4     4    12
Direct
  0.5056780973357462  0.5396218858460600  0.2499986378027330
  0.9942805846785561  0.0397754246907809  0.2500013302266240
  0.4942831057981110  0.4602259361505574  0.7500013489882988
  0.0056803868596091  0.9603767869581716  0.7499988100416743
  0.9997821700227547  0.5001429529472361  0.0000360744057559
  0.4997827432947162  0.9998572825924086  0.5000358330231549
  0.9997822773770508  0.5001420794538092  0.4999643632604673
  0.4997827471059040  0.9998574708937227  0.9999646758341001
  0.7854592101908366  0.7945824362107103  0.0350942296362859
  0.7147135342125637  0.2946753597967700  0.4649200189783826
  0.2147171749445107  0.2053233349343202  0.5350807586422377
  0.2854611432919896  0.7054179219331189  0.9649062532059318
  0.2147152767861371  0.2053221593275794  0.9649191760305413
  0.2854620288104996  0.7054197503322115  0.5350933588091422
  0.7854584743731721  0.7945816133971491  0.4649060192320960
  0.7147137643254879  0.2946779350493003  0.0350795754696733
  0.4315072159501625  0.9827110063165136  0.2500003453225901
  0.0686157847931455  0.4828366258993029  0.2499992785070688
  0.5686165817190627  0.0171625020255277  0.7499995850115369
  0.9315076981299768  0.5172895352447497  0.7500003275717049
 
  0.00000000E+00  0.00000000E+00  0.00000000E+00
  0.00000000E+00  0.00000000E+00  0.00000000E+00
  0.00000000E+00  0.00000000E+00  0.00000000E+00
  0.00000000E+00  0.00000000E+00  0.00000000E+00
  0.00000000E+00  0.00000000E+00  0.00000000E+00
  0.00000000E+00  0.00000000E+00  0.00000000E+00
  0.00000000E+00  0.00000000E+00  0.00000000E+00
  0.00000000E+00  0.00000000E+00  0.00000000E+00
  0.00000000E+00  0.00000000E+00  0.00000000E+00
  0.00000000E+00  0.00000000E+00  0.00000000E+00
  0.00000000E+00  0.00000000E+00  0.00000000E+00
  0.00000000E+00  0.00000000E+00  0.00000000E+00
  0.00000000E+00  0.00000000E+00  0.00000000E+00
  0.00000000E+00  0.00000000E+00  0.00000000E+00
  0.00000000E+00  0.00000000E+00  0.00000000E+00
  0.00000000E+00  0.00000000E+00  0.00000000E+00
  0.00000000E+00  0.00000000E+00  0.00000000E+00
  0.00000000E+00  0.00000000E+00  0.00000000E+00
  0.00000000E+00  0.00000000E+00  0.00000000E+00
  0.00000000E+00  0.00000000E+00  0.00000000E+00
