Mn12 P4                                 
   1.00000000000000     
    -0.0038573439730794    0.0005649691778739   -5.1362281599534114
    -5.0602235799319990   -5.0582764026890326   -2.5568383545758131
    -5.0592906545822416    5.0595594331348241   -2.5579071870192394
   Mn   P 
    12     4
Direct
  0.1190797595425428  0.0186194046530289  0.1967853488096720
  0.3339181589222991  0.9818472195161561  0.8034789532804099
  0.6835280618345009  0.1966431305111521  0.9817006811704887
  0.8631247135191750  0.8039680450445134  0.0185136423692310
  0.9436734973985043  0.6844002756384865  0.3864539611410964
  0.0159510735658125  0.3152680021873895  0.6124500213963473
  0.6693996628375244  0.3862870885912181  0.3156413725950610
  0.3708750914930069  0.6133997097039302  0.6843055693597565
  0.5267674896849827  0.0443857884806441  0.3923633657434632
  0.9647569984337069  0.9555420196473481  0.6078031929977026
  0.0801427330947468  0.3922877910519015  0.9554888728879752
  0.4292589114496054  0.6076287661891657  0.0445196050361008
  0.4371980248661427  0.7479516602332779  0.3491323333730799
  0.5348349105606495  0.2518462997146143  0.6513352569482531
  0.2134719627289396  0.3490368659526200  0.2519158646159615
  0.8140189500678606  0.6508879328845751  0.7481119582754010
 
  0.00000000E+00  0.00000000E+00  0.00000000E+00
  0.00000000E+00  0.00000000E+00  0.00000000E+00
  0.00000000E+00  0.00000000E+00  0.00000000E+00
  0.00000000E+00  0.00000000E+00  0.00000000E+00
  0.00000000E+00  0.00000000E+00  0.00000000E+00
  0.00000000E+00  0.00000000E+00  0.00000000E+00
  0.00000000E+00  0.00000000E+00  0.00000000E+00
  0.00000000E+00  0.00000000E+00  0.00000000E+00
  0.00000000E+00  0.00000000E+00  0.00000000E+00
  0.00000000E+00  0.00000000E+00  0.00000000E+00
  0.00000000E+00  0.00000000E+00  0.00000000E+00
  0.00000000E+00  0.00000000E+00  0.00000000E+00
  0.00000000E+00  0.00000000E+00  0.00000000E+00
  0.00000000E+00  0.00000000E+00  0.00000000E+00
  0.00000000E+00  0.00000000E+00  0.00000000E+00
  0.00000000E+00  0.00000000E+00  0.00000000E+00
