Ca1 V4 S6 O24
1.0
7.365040 -0.046077 5.062975
2.431814 6.569903 5.553275
0.069717 -0.602633 8.921365
Ca V S O
1 4 6 24
direct
0.474220 0.530591 0.518772 Ca
0.647124 0.644282 0.644639 V
0.144590 0.148467 0.146016 V
0.846999 0.848671 0.846847 V
0.352951 0.350433 0.348134 V
0.952432 0.248333 0.533014 S
0.458373 0.043251 0.746860 S
0.534216 0.954936 0.248108 S
0.746355 0.459841 0.041936 S
0.248404 0.534901 0.951917 S
0.043911 0.745704 0.460735 S
0.381693 0.613384 0.752147 O
0.943686 0.321856 0.021177 O
0.758783 0.381819 0.614377 O
0.024923 0.941677 0.321290 O
0.610139 0.756227 0.383102 O
0.322366 0.022068 0.944734 O
0.668061 0.973259 0.049011 O
0.238630 0.608523 0.389199 O
0.049380 0.672816 0.974609 O
0.380275 0.238769 0.612585 O
0.976459 0.048895 0.670815 O
0.612355 0.386413 0.239764 O
0.956053 0.275507 0.352250 O
0.488536 0.897219 0.697863 O
0.342465 0.976482 0.279675 O
0.694684 0.485902 0.899862 O
0.273080 0.350558 0.965672 O
0.897963 0.698469 0.491860 O
0.101837 0.294657 0.497144 O
0.641782 0.032986 0.719896 O
0.513813 0.097407 0.293994 O
0.724531 0.643973 0.022928 O
0.300550 0.504905 0.095328 O
0.028638 0.723374 0.645123 O
