Cr2 P8                                  
   1.00000000000000     
    -4.8011635268057464    0.0257929886524121    1.8762332457523674
    -2.4445314251244010   -5.3336493768749884    0.7526607306018824
    -0.0106428637777256    0.2044643801983642    5.8856346987345534
   Cr   P 
     2     8
Direct
  0.9346441419742462  0.1366087098700248  0.7218089006695934
  0.0653767269965471  0.8634170073808107  0.2781987694819179
  0.6639755587874347  0.1613530727832568  0.1598737812827977
  0.1983119592332372  0.1715151751746191  0.3135317706233351
  0.3359591782181326  0.8386852307496611  0.8401235259495508
  0.8017110513019290  0.8284705437486792  0.6865025392415944
  0.4970006241262652  0.4536035101414413  0.6854448586550106
  0.0447681280386902  0.4500152111661109  0.8083726132791611
  0.5029813529244649  0.5463937727176571  0.3145870239015238
  0.9552712783990529  0.5499377662677460  0.1915562169155081
 
  0.00000000E+00  0.00000000E+00  0.00000000E+00
  0.00000000E+00  0.00000000E+00  0.00000000E+00
  0.00000000E+00  0.00000000E+00  0.00000000E+00
  0.00000000E+00  0.00000000E+00  0.00000000E+00
  0.00000000E+00  0.00000000E+00  0.00000000E+00
  0.00000000E+00  0.00000000E+00  0.00000000E+00
  0.00000000E+00  0.00000000E+00  0.00000000E+00
  0.00000000E+00  0.00000000E+00  0.00000000E+00
  0.00000000E+00  0.00000000E+00  0.00000000E+00
  0.00000000E+00  0.00000000E+00  0.00000000E+00
