Cr2 P8
1.0
-4.857928 0.000000 1.830621
-2.428964 -5.380000 0.915311
0.000000 0.000000 5.771200
Cr P
2 8
direct
0.937590 0.124820 0.750000 Cr0+
0.062410 0.875180 0.250000 Cr0+
0.637640 0.177180 0.177970 P0+
0.185180 0.177180 0.322030 P0+
0.362360 0.822820 0.822030 P0+
0.814820 0.822820 0.677970 P0+
0.504970 0.442300 0.689960 P0+
0.052730 0.442300 0.810040 P0+
0.495030 0.557700 0.310040 P0+
0.947270 0.557700 0.189960 P0+
