Ca1 Fe4 P6 O24                          
   1.00000000000000     
     2.7027280000000000    6.9748559999999999    4.6401940000000002
     0.3558290000000000    0.2738380000000000    8.7871059999999996
     7.4112580000000001    0.2954520000000000    4.6196609999999998
   Ca   Fe   P    O 
     1     4     6    24
Direct
  0.2754078662444016  0.7593852908713605  0.5617532669537775
  0.6573970265730203  0.6345111698237699  0.6433620273409365
  0.1448319537365154  0.1580671870969042  0.1437601204552819
  0.8328899724604214  0.8458841058390510  0.8500803318366394
  0.3566007206853489  0.3518455412540282  0.3631043214484558
  0.2409362018485168  0.5245729666950951  0.9776189038952274
  0.0227975822228847  0.7611258862708092  0.4529288874382777
  0.9721784612912341  0.2383007043208885  0.5265453800531227
  0.4443227540269076  0.0278613572118579  0.7645583286856911
  0.5449155408266910  0.9775110781355740  0.2287531458211488
  0.7556210914394907  0.4593092361043301  0.0440697697318153
  0.5846324057200120  0.7787674174925070  0.3956806499681892
  0.3021334657932701  0.0115227592193834  0.9806123117928724
  0.4167605966016860  0.5676789514812274  0.7892383780462642
  0.9684808153430364  0.3067076509453072  0.0209500791884527
  0.7809644372456251  0.3903204037920252  0.5982041511720310
  0.0197150741357686  0.9727885262292373  0.3328526794220659
  0.9759930453520754  0.0238393299113075  0.6535761379797934
  0.6051000377310966  0.3944777603395528  0.2431559377699457
  0.6983477793309187  0.9754973011848126  0.0205793017377409
  0.2314939339723817  0.6161165788236673  0.3945159617014223
  0.0567113232190602  0.6949317864675574  0.9320076407957674
  0.3838052385927032  0.2330976223563101  0.6187961936919361
  0.2697996874895472  0.3319059040425276  0.9759176674245171
  0.8678176618699398  0.7370957551460431  0.4540263223291019
  0.9900955440672385  0.2896866198558683  0.3136982029613328
  0.4667124015439499  0.8704211754982125  0.7236899739685160
  0.3388084830125855  1.0028722073477840  0.2582013567629790
  0.7282259877091369  0.4987966846673156  0.8689223318918883
  0.2428161333521843  0.5048827230832497  0.1569855235827767
 -0.0112327076078085  0.7131386692420379  0.6725861205811219
  0.1504762199586662  0.2341780442963515  0.5177115482864620
  0.6517679900021993  0.9968659888803901  0.7384915716432625
  0.5338310040069418  0.1415446303237598  0.2490904645190434
  0.7318697952306258  0.6545394941519032  0.0369954126733988
 
             NaN             NaN             NaN
             NaN             NaN             NaN
             NaN             NaN             NaN
             NaN             NaN             NaN
             NaN             NaN             NaN
             NaN             NaN             NaN
             NaN             NaN             NaN
             NaN             NaN             NaN
             NaN             NaN             NaN
             NaN             NaN             NaN
             NaN             NaN             NaN
             NaN             NaN             NaN
             NaN             NaN             NaN
             NaN             NaN             NaN
             NaN             NaN             NaN
             NaN             NaN             NaN
             NaN             NaN             NaN
             NaN             NaN             NaN
             NaN             NaN             NaN
             NaN             NaN             NaN
             NaN             NaN             NaN
             NaN             NaN             NaN
             NaN             NaN             NaN
             NaN             NaN             NaN
             NaN             NaN             NaN
             NaN             NaN             NaN
             NaN             NaN             NaN
             NaN             NaN             NaN
             NaN             NaN             NaN
             NaN             NaN             NaN
             NaN             NaN             NaN
             NaN             NaN             NaN
             NaN             NaN             NaN
             NaN             NaN             NaN
             NaN             NaN             NaN
