Ca1 Fe4 P6 O24
1.0
2.702728 6.974856 4.640194
0.355829 0.273838 8.787106
7.411258 0.295452 4.619661
Ca Fe P O
1 4 6 24
direct
0.344311 0.736719 0.580303 Ca
0.654439 0.638548 0.641379 Fe
0.146726 0.150525 0.147626 Fe
0.840200 0.841312 0.847809 Fe
0.356628 0.353442 0.354268 Fe
0.238200 0.528600 0.970054 P
0.035198 0.758193 0.456949 P
0.957665 0.246047 0.527157 P
0.452851 0.028355 0.760547 P
0.536133 0.971169 0.232613 P
0.761805 0.452147 0.036353 P
0.590847 0.774701 0.393161 O
0.317357 0.011246 0.977546 O
0.397937 0.587649 0.773904 O
0.974308 0.303865 0.014803 O
0.765310 0.401385 0.589134 O
0.019522 0.972726 0.318208 O
0.956114 0.037335 0.671360 O
0.611884 0.388547 0.238594 O
0.678401 0.975371 0.021828 O
0.235430 0.610098 0.387972 O
0.038187 0.693871 0.959552 O
0.386771 0.231609 0.613850 O
0.267132 0.332011 0.979699 O
0.868560 0.732312 0.478994 O
0.979922 0.285255 0.318247 O
0.461777 0.871520 0.727644 O
0.325037 0.993209 0.277649 O
0.727883 0.484407 0.868926 O
0.254712 0.507695 0.142272 O
0.020025 0.720047 0.663613 O
0.131656 0.248327 0.518758 O
0.665046 -0.008838 0.722747 O
0.521626 0.135505 0.256490 O
0.735969 0.651503 0.021623 O
