Ca6 Co4 O12                             
   1.00000000000000     
     4.5646960928468561    2.6355861235732156    3.4876517792725825
    -4.5810711099947214    2.6697007467069143    3.4838499826010247
     0.0213182798429405   -5.3023403087353946    3.4837682677096464
   Ca   Co   O 
     6     4    12
Direct
  0.6193645239994012  0.8817928452186408  0.2488403345208781
  0.8806234650016265  0.2511683517833347  0.6182146358099274
  0.2500125147013819  0.6181098271384329  0.8818854164290570
  0.1193691363216871  0.7488465756342393  0.3818038504339611
  0.7499872794844435  0.3818671388211285  0.1181365203451890
  0.3806393509650405  0.1181899497609606  0.7511440129456872
  0.2499785614099181  0.2524456539359292  0.2475506193632100
  0.7500249929122305  0.7475450318044068  0.7524510814803946
  0.4999644157196599  0.5000315102271173  0.4999527002926953
  0.0000298422379288  0.0000480896461568  0.9999673658545660
  0.5369061910701234  0.2058472691552709  0.4028570077385751
  0.2047070300726190  0.4025091499423681  0.5366534708387292
  0.4004725500643787  0.5375368826074123  0.2030428237920745
  0.0368704441022984  0.9028747882188739  0.7058552409064802
  0.9004528586662133  0.7029719590833494  0.0375247655979010
  0.7047739879892134  0.0366792913911311  0.9025310351000755
  0.4631296703091365  0.7941236562078444  0.5971220005286355
  0.7952465809763751  0.5974791726785256  0.4633242137361506
  0.5995714789733313  0.4624886977541607  0.7970343696156661
  0.9630919329981253  0.0971444390091634  0.2941659818895346
  0.0995019525434415  0.2969552531049544  0.9624559628856986
  0.2952812394814259  0.9633444668765989  0.0974865898949204
 
  0.00000000E+00  0.00000000E+00  0.00000000E+00
  0.00000000E+00  0.00000000E+00  0.00000000E+00
  0.00000000E+00  0.00000000E+00  0.00000000E+00
  0.00000000E+00  0.00000000E+00  0.00000000E+00
  0.00000000E+00  0.00000000E+00  0.00000000E+00
  0.00000000E+00  0.00000000E+00  0.00000000E+00
  0.00000000E+00  0.00000000E+00  0.00000000E+00
  0.00000000E+00  0.00000000E+00  0.00000000E+00
  0.00000000E+00  0.00000000E+00  0.00000000E+00
  0.00000000E+00  0.00000000E+00  0.00000000E+00
  0.00000000E+00  0.00000000E+00  0.00000000E+00
  0.00000000E+00  0.00000000E+00  0.00000000E+00
  0.00000000E+00  0.00000000E+00  0.00000000E+00
  0.00000000E+00  0.00000000E+00  0.00000000E+00
  0.00000000E+00  0.00000000E+00  0.00000000E+00
  0.00000000E+00  0.00000000E+00  0.00000000E+00
  0.00000000E+00  0.00000000E+00  0.00000000E+00
  0.00000000E+00  0.00000000E+00  0.00000000E+00
  0.00000000E+00  0.00000000E+00  0.00000000E+00
  0.00000000E+00  0.00000000E+00  0.00000000E+00
  0.00000000E+00  0.00000000E+00  0.00000000E+00
  0.00000000E+00  0.00000000E+00  0.00000000E+00
