Ca1 Fe4 S6 O24                          
   1.00000000000000     
     7.5596790000000000    0.2200500000000000    4.6003400000000001
     2.6966260000000002    7.0568249999999999    4.6042300000000003
     0.3247510000000000    0.2335260000000000    8.8478429999999992
   Ca   Fe   S    O 
     1     4     6    24
Direct
  0.3935926693133155  0.6157591240868256  0.5055687964912714
  0.6517751201355845  0.6413335729572364  0.6545110520189341
  0.1405397715020940  0.1533190408275132  0.1444973539635129
  0.8471717303964387  0.8521121616558730  0.8456796407799431
  0.3498614920123226  0.3470656003348546  0.3590693002628907
  0.9606757062455176  0.2481956347108737  0.5304478838145423
  0.4534618095071888  0.0459589447435914  0.7492475908045161
  0.5420262470834365  0.9603321660541033  0.2470123800713481
  0.7374666838954494  0.4652650112661909  0.0557558917143157
  0.2478528110236609  0.5356386841393950  0.9598831720413039
  0.0303549760686020  0.7530226026207897  0.4506151294577443
  0.3982146658651260  0.5999968172604051  0.7698710112393835
  0.9298067289197387  0.3158937922703483  0.0325415625267816
  0.7699541847805902  0.3807380458778499  0.6124540106800292
  0.0039920078576148  0.9564017979938035  0.3210048007643407
  0.6064534769476432  0.7643746691768740  0.3901223272324426
  0.3160107276173899  0.0200088326786871  0.9488238591103103
  0.6796418769990930  0.9736780958417918  0.0537324593419605
  0.2298606680680118  0.6274064733916244  0.3678808928828582
  0.0614798738939911  0.6899449476975889  0.9550052483907927
  0.3753616066369301  0.2455883570794146  0.6201572232129496
  0.9793563433119447  0.0458607770579819  0.6564253939335973
  0.5965640940383264  0.4015590772319560  0.2507943176219637
  0.9802782708774964  0.2822773855750308  0.3389828117408652
  0.4810447910290828  0.9040912770609738  0.6902419008684033
  0.3522333802411938  0.9728916454509019  0.2741869980424447
  0.6767872094681544  0.5046963848760305  0.9096277079450241
  0.2612281143766986  0.3593875778829678  0.9665624255114971
  0.8936607017147469  0.6947524098092616  0.4762108282781066
  0.1131740246831880  0.2836895635430152  0.5127675226287388
  0.6390936508706747  0.0231717871761854  0.7312826431518810
  0.5177260150539885  0.1073062235629724  0.2938894531645178
  0.7360275571087582  0.6414981230699933  0.0360886186184355
  0.2867923475510908  0.5024572133484138  0.1153375694007054
  0.0241098951150721  0.7210837618115230  0.6378261025259861
 
             NaN             NaN             NaN
             NaN             NaN             NaN
             NaN             NaN             NaN
             NaN             NaN             NaN
             NaN             NaN             NaN
             NaN             NaN             NaN
             NaN             NaN             NaN
             NaN             NaN             NaN
             NaN             NaN             NaN
             NaN             NaN             NaN
             NaN             NaN             NaN
             NaN             NaN             NaN
             NaN             NaN             NaN
             NaN             NaN             NaN
             NaN             NaN             NaN
             NaN             NaN             NaN
             NaN             NaN             NaN
             NaN             NaN             NaN
             NaN             NaN             NaN
             NaN             NaN             NaN
             NaN             NaN             NaN
             NaN             NaN             NaN
             NaN             NaN             NaN
             NaN             NaN             NaN
             NaN             NaN             NaN
             NaN             NaN             NaN
             NaN             NaN             NaN
             NaN             NaN             NaN
             NaN             NaN             NaN
             NaN             NaN             NaN
             NaN             NaN             NaN
             NaN             NaN             NaN
             NaN             NaN             NaN
             NaN             NaN             NaN
             NaN             NaN             NaN
