Ca12 Mn8 Si12 O48                       
   1.00000000000000     
     6.0353349876389313    6.0275765664359495    6.0366733431703068
     6.0404519022000862   -6.0238086176810040   -6.0409676899326410
    -6.0307976143310462    6.0391290503902537   -6.0202536631270265
   Ca   Mn   Si   O 
    12     8    12    48
Direct
  0.7519392607717847  0.6248868085940202  0.3754055496992166
  0.2473077402061890  0.8739574001821566  0.1214780468635865
  0.1259327773051808  0.7488425289705845  0.3736225106074684
  0.3741060594058609  0.2516900460935645  0.1268655371818852
  0.3773351458207230  0.6267334582052939  0.2508949132772855
  0.1269401822539322  0.8753512552262990  0.7486619647138042
  0.2479371405354271  0.3750338198767054  0.6247012452266816
  0.7524485782897727  0.1259331768522642  0.8784375649794924
  0.8740692030439661  0.2516686051373682  0.6267917321435590
  0.6260907603580463  0.7485770300084482  0.8732772415621781
  0.6223482645786618  0.3731092814950188  0.7489296872505875
  0.8732267497705308  0.1244755024096165  0.2512063324843012
  0.9999322505008621  0.9999963971712091  0.4999853605725662
  0.5000793287105978  0.5000489241655117  0.5001675684148097
  0.9997689049047267  0.4997024863408797  0.0006152726680426
  0.5000060714269665  0.9999963884326490  0.0000474289147974
  0.9999155806829876  0.5000127586335879  0.5000912239365789
  0.5000986395055662  0.9997400999122874  0.4993586781812454
  0.4999888572710276  0.5000101604585225  0.0000255557860029
  0.0005510587632358  0.0002700645773004  0.9995178098283688
  0.7461274898684138  0.3678508770565330  0.1289992972963674
  0.2387128067087758  0.1168394367586956  0.3714495985624495
  0.3844057636612916  0.7565811778306610  0.6232790275633135
  0.1304462248187193  0.2611679494254417  0.8805635933858227
  0.6251369383859711  0.8723518263891279  0.2471598086155140
  0.8744823286344428  0.6221378190946041  0.7466998476717066
  0.2537543008666390  0.6321200230330604  0.8712260222490116
  0.7612501021572555  0.8832206917930492  0.6283350779561161
  0.6157410543702184  0.2435757009858577  0.3765394825627837
  0.8695659560339948  0.7390351072454493  0.1195461266125406
  0.3749009196398490  0.1274533896721124  0.7524847130879877
  0.1256001407714606  0.3777815400942615  0.2537261773926431
  0.3815158608703086  0.2935007887012802  0.5069065489091216
  0.0954963528030248  0.1087975519978031  0.4101716911491025
  0.6967399106244301  0.1850406949036980  0.0882979357900808
  0.7913518584536092  0.3785479000506129  0.9961481939355536
  0.0924756526669981  0.2208189467795236  0.7033586287811175
  0.9969605860363231  0.3089192550803403  0.8950110009824641
  0.5210897952009006  0.8947080054725731  0.8008609367184363
  0.4174617248195105  0.6082933942454005  0.6072178969256257
  0.8785833965674001  0.4849153565864981  0.7887754280887407
  0.6950783632107544  0.5885459332682714  0.7034444397378294
  0.6158177172067525  0.9124033558902056  0.1065425867391383
  0.8056909410609308  0.0016578040694668  0.3908262933007052
  0.6184004948217563  0.7065718461785124  0.4931897744996689
  0.9044862780166909  0.8911472585961704  0.5896816051755067
  0.3033869631770472  0.8150370941925758  0.9118508655803126
  0.2083146855978200  0.6213255734343477  0.0039305546625243
  0.9072727100821893  0.7793251508740369  0.2967248383087480
  0.0028930368795059  0.6908273927422286  0.1054026030143547
  0.4790687266989337  0.1054561796950679  0.1990055597176905
  0.5825969377878195  0.3918664542091435  0.3929212360152619
  0.1213718141283735  0.5150977166893114  0.2118097819412483
  0.3050049177168290  0.4115881149999865  0.2968195417516668
  0.3842995074811029  0.0874337975033441  0.8931681702776189
  0.1941414209832359  0.9982680253374170  0.6090751448898573
  0.3927490523458346  0.8039863656108963  0.4882944757107737
  0.2076843451363501  0.7145789588113800  0.5894882464981634
  0.1196522045790260  0.1168290972359074  0.9145520624111754
  0.3116755355458736  0.4025574598683050  0.0150850528939586
  0.8944750421060235  0.4997694868643663  0.3097446873255834
  0.6076925945768039  0.4063752688777740  0.1273716518881329
  0.1901326923952098  0.0841333696472262  0.1897908062584506
  0.2802797894493025  0.9801804408155448  0.3726148462724268
  0.5851546748715819  0.6898855014792531  0.1948900413892787
  0.4949921999727636  0.8839392921161533  0.2973667625438381
  0.0120055773732588  0.7999197466022778  0.8894411330239222
  0.9098416926904704  0.6146765715320157  0.6020126057212352
  0.6072410822943439  0.1958909254122077  0.5112303455057869
  0.7924288320807591  0.2854358597081372  0.4104197264637435
  0.8808173185580301  0.8832017116121875  0.0851982010331227
  0.6882376697272434  0.5975744768369751  0.9851017516953249
  0.1053378063145658  0.5002774478254892  0.6904489101105966
  0.3921773281223579  0.5935383441517104  0.8727900342077746
  0.8103382044587804  0.9162212927370419  0.8100725558950543
  0.7196472825056546  0.0198434468247086  0.6271337608419287
  0.4147162183625426  0.3099748265421809  0.8050692215747119
  0.5046325040779607  0.1156981155911723  0.7016127471862319
  0.9883227952205615  0.2000247555020280  0.1107316073446114
  0.0901213243193979  0.3852419141750971  0.3983075120630630
 
  0.00000000E+00  0.00000000E+00  0.00000000E+00
  0.00000000E+00  0.00000000E+00  0.00000000E+00
  0.00000000E+00  0.00000000E+00  0.00000000E+00
  0.00000000E+00  0.00000000E+00  0.00000000E+00
  0.00000000E+00  0.00000000E+00  0.00000000E+00
  0.00000000E+00  0.00000000E+00  0.00000000E+00
  0.00000000E+00  0.00000000E+00  0.00000000E+00
  0.00000000E+00  0.00000000E+00  0.00000000E+00
  0.00000000E+00  0.00000000E+00  0.00000000E+00
  0.00000000E+00  0.00000000E+00  0.00000000E+00
  0.00000000E+00  0.00000000E+00  0.00000000E+00
  0.00000000E+00  0.00000000E+00  0.00000000E+00
  0.00000000E+00  0.00000000E+00  0.00000000E+00
  0.00000000E+00  0.00000000E+00  0.00000000E+00
  0.00000000E+00  0.00000000E+00  0.00000000E+00
  0.00000000E+00  0.00000000E+00  0.00000000E+00
  0.00000000E+00  0.00000000E+00  0.00000000E+00
  0.00000000E+00  0.00000000E+00  0.00000000E+00
  0.00000000E+00  0.00000000E+00  0.00000000E+00
  0.00000000E+00  0.00000000E+00  0.00000000E+00
  0.00000000E+00  0.00000000E+00  0.00000000E+00
  0.00000000E+00  0.00000000E+00  0.00000000E+00
  0.00000000E+00  0.00000000E+00  0.00000000E+00
  0.00000000E+00  0.00000000E+00  0.00000000E+00
  0.00000000E+00  0.00000000E+00  0.00000000E+00
  0.00000000E+00  0.00000000E+00  0.00000000E+00
  0.00000000E+00  0.00000000E+00  0.00000000E+00
  0.00000000E+00  0.00000000E+00  0.00000000E+00
  0.00000000E+00  0.00000000E+00  0.00000000E+00
  0.00000000E+00  0.00000000E+00  0.00000000E+00
  0.00000000E+00  0.00000000E+00  0.00000000E+00
  0.00000000E+00  0.00000000E+00  0.00000000E+00
  0.00000000E+00  0.00000000E+00  0.00000000E+00
  0.00000000E+00  0.00000000E+00  0.00000000E+00
  0.00000000E+00  0.00000000E+00  0.00000000E+00
  0.00000000E+00  0.00000000E+00  0.00000000E+00
  0.00000000E+00  0.00000000E+00  0.00000000E+00
  0.00000000E+00  0.00000000E+00  0.00000000E+00
  0.00000000E+00  0.00000000E+00  0.00000000E+00
  0.00000000E+00  0.00000000E+00  0.00000000E+00
  0.00000000E+00  0.00000000E+00  0.00000000E+00
  0.00000000E+00  0.00000000E+00  0.00000000E+00
  0.00000000E+00  0.00000000E+00  0.00000000E+00
  0.00000000E+00  0.00000000E+00  0.00000000E+00
  0.00000000E+00  0.00000000E+00  0.00000000E+00
  0.00000000E+00  0.00000000E+00  0.00000000E+00
  0.00000000E+00  0.00000000E+00  0.00000000E+00
  0.00000000E+00  0.00000000E+00  0.00000000E+00
  0.00000000E+00  0.00000000E+00  0.00000000E+00
  0.00000000E+00  0.00000000E+00  0.00000000E+00
  0.00000000E+00  0.00000000E+00  0.00000000E+00
  0.00000000E+00  0.00000000E+00  0.00000000E+00
  0.00000000E+00  0.00000000E+00  0.00000000E+00
  0.00000000E+00  0.00000000E+00  0.00000000E+00
  0.00000000E+00  0.00000000E+00  0.00000000E+00
  0.00000000E+00  0.00000000E+00  0.00000000E+00
  0.00000000E+00  0.00000000E+00  0.00000000E+00
  0.00000000E+00  0.00000000E+00  0.00000000E+00
  0.00000000E+00  0.00000000E+00  0.00000000E+00
  0.00000000E+00  0.00000000E+00  0.00000000E+00
  0.00000000E+00  0.00000000E+00  0.00000000E+00
  0.00000000E+00  0.00000000E+00  0.00000000E+00
  0.00000000E+00  0.00000000E+00  0.00000000E+00
  0.00000000E+00  0.00000000E+00  0.00000000E+00
  0.00000000E+00  0.00000000E+00  0.00000000E+00
  0.00000000E+00  0.00000000E+00  0.00000000E+00
  0.00000000E+00  0.00000000E+00  0.00000000E+00
  0.00000000E+00  0.00000000E+00  0.00000000E+00
  0.00000000E+00  0.00000000E+00  0.00000000E+00
  0.00000000E+00  0.00000000E+00  0.00000000E+00
  0.00000000E+00  0.00000000E+00  0.00000000E+00
  0.00000000E+00  0.00000000E+00  0.00000000E+00
  0.00000000E+00  0.00000000E+00  0.00000000E+00
  0.00000000E+00  0.00000000E+00  0.00000000E+00
  0.00000000E+00  0.00000000E+00  0.00000000E+00
  0.00000000E+00  0.00000000E+00  0.00000000E+00
  0.00000000E+00  0.00000000E+00  0.00000000E+00
  0.00000000E+00  0.00000000E+00  0.00000000E+00
  0.00000000E+00  0.00000000E+00  0.00000000E+00
  0.00000000E+00  0.00000000E+00  0.00000000E+00
