V5 S4                                   
   1.00000000000000     
     0.0006718711243867   -0.0010328361205591   -3.6207547027861104
    -4.7393394321339146   -4.7346595514618359   -1.8112435612961679
    -4.7320097223479021    4.7323499588965694   -1.8074202384427349
   V    S 
     5     4
Direct
 -0.0000260478932796  0.0000022538907398  0.9999726895476210
  0.5958689148254006  0.1022027623381119  0.7055652652632829
  0.4041341520939091  0.8978683068191465  0.2943403384904860
  0.3003035762995337  0.2946122783476699  0.1022668863638368
  0.6996421921578007  0.7053788862658222  0.8978649293557766
  0.7448217163241615  0.1735867014183304  0.3364000342579412
  0.2552441214283289  0.8263462255758521  0.6635948830368384
  0.0806859798787610  0.6635989016112985  0.1735510487866975
  0.9193253948853840  0.3364036837330285  0.8264439248975267
 
  0.00000000E+00  0.00000000E+00  0.00000000E+00
  0.00000000E+00  0.00000000E+00  0.00000000E+00
  0.00000000E+00  0.00000000E+00  0.00000000E+00
  0.00000000E+00  0.00000000E+00  0.00000000E+00
  0.00000000E+00  0.00000000E+00  0.00000000E+00
  0.00000000E+00  0.00000000E+00  0.00000000E+00
  0.00000000E+00  0.00000000E+00  0.00000000E+00
  0.00000000E+00  0.00000000E+00  0.00000000E+00
  0.00000000E+00  0.00000000E+00  0.00000000E+00
