Ca8 Mn4 Si6 O24                         
   1.00000000000000     
     7.8365321456531518   -0.1950287204038266    4.1005114932487636
     2.3961460126983605    7.4637665610754516    4.1005074694923342
    -0.2745525252739469   -0.1950321202606603    8.8402499534406243
   Ca   Mn   Si   O 
     8     4     6    24
Direct
  0.4984418216418192  0.4984420191035852  0.4984416782958263
  0.9984417285358589  0.9984419864464726  0.9984422225015805
  0.3806869787401865  0.7486928859430222  0.1154323805142212
  0.8806865820761018  0.6154300356536382  0.2486965972152007
  0.1154311035817983  0.3806866999532801  0.7486965681956548
  0.2486952631357582  0.8806870902619366  0.6154297572204754
  0.7486937165082495  0.1154329832495478  0.3806868889240320
  0.6154330617746595  0.2486923825115923  0.8806874776932005
  0.6519585065018418  0.6519584189195555  0.6519580538318124
  0.1519589536000225  0.1519587619141163  0.1519576296142446
  0.8450140533207389  0.8450135662822049  0.8450139361044364
  0.3450139281293119  0.3450140496941998  0.3450138874537316
  0.9411441537400478  0.2481011733025724  0.5556932244777357
  0.4411435449401608  0.0556935861578225  0.7481010624852971
  0.5556925179198799  0.9411433126864566  0.2481012798230964
  0.7481015071674406  0.4411441412413026  0.0556932727484352
  0.2481011910150599  0.5556949448901776  0.9411443437868812
  0.0556937757442242  0.7481010307150271  0.4411442907018639
  0.4026220882500056  0.5732841923065379  0.7505990348974265
  0.9026228462254196  0.2506003394907168  0.0732820969898427
  0.7506010632882933  0.4026232004827577  0.5732796044786355
  0.0732828905048919  0.9026215951211256  0.2505995387700821
  0.5732816668054141  0.7506003707061524  0.4026218700541335
  0.2505995442682902  0.0732831910771097  0.9026214259859913
  0.7465459185784269  0.9227827209828448  0.0940532724028387
  0.2465488747477025  0.5940540799462468  0.4227812671884479
  0.0940548762646785  0.7465503755301839  0.9227804027433919
  0.4227834261450241  0.2465467684062119  0.5940538869178908
  0.9227792197946911  0.0940552654254887  0.7465489495905189
  0.5940544781243773  0.4227802962436513  0.2465486217976363
  0.9713189594521481  0.1908957259815125  0.3917498152617824
  0.4713188523312439  0.8917506718534511  0.6908955385982409
  0.3917472320183109  0.9713161748320331  0.1909007674102909
  0.6908993090831572  0.4713176855671790  0.8917493766117346
  0.1908956046229875  0.3917525547777885  0.9713192099943413
  0.8917508643381638  0.6908961091520993  0.4713180259104490
  0.1055043116383487  0.3044293083243943  0.5257467391668555
  0.6055021139330066  0.0257441149174937  0.8044338920682677
  0.5257454799143346  0.1055041994235069  0.3044295570591657
  0.8044304899431083  0.6055035822299786  0.0257467417622479
  0.3044323773969495  0.5257471331209516  0.1055022827714467
  0.0257451242579165  0.8044312751741032  0.6055035299806306
 
  0.00000000E+00  0.00000000E+00  0.00000000E+00
  0.00000000E+00  0.00000000E+00  0.00000000E+00
  0.00000000E+00  0.00000000E+00  0.00000000E+00
  0.00000000E+00  0.00000000E+00  0.00000000E+00
  0.00000000E+00  0.00000000E+00  0.00000000E+00
  0.00000000E+00  0.00000000E+00  0.00000000E+00
  0.00000000E+00  0.00000000E+00  0.00000000E+00
  0.00000000E+00  0.00000000E+00  0.00000000E+00
  0.00000000E+00  0.00000000E+00  0.00000000E+00
  0.00000000E+00  0.00000000E+00  0.00000000E+00
  0.00000000E+00  0.00000000E+00  0.00000000E+00
  0.00000000E+00  0.00000000E+00  0.00000000E+00
  0.00000000E+00  0.00000000E+00  0.00000000E+00
  0.00000000E+00  0.00000000E+00  0.00000000E+00
  0.00000000E+00  0.00000000E+00  0.00000000E+00
  0.00000000E+00  0.00000000E+00  0.00000000E+00
  0.00000000E+00  0.00000000E+00  0.00000000E+00
  0.00000000E+00  0.00000000E+00  0.00000000E+00
  0.00000000E+00  0.00000000E+00  0.00000000E+00
  0.00000000E+00  0.00000000E+00  0.00000000E+00
  0.00000000E+00  0.00000000E+00  0.00000000E+00
  0.00000000E+00  0.00000000E+00  0.00000000E+00
  0.00000000E+00  0.00000000E+00  0.00000000E+00
  0.00000000E+00  0.00000000E+00  0.00000000E+00
  0.00000000E+00  0.00000000E+00  0.00000000E+00
  0.00000000E+00  0.00000000E+00  0.00000000E+00
  0.00000000E+00  0.00000000E+00  0.00000000E+00
  0.00000000E+00  0.00000000E+00  0.00000000E+00
  0.00000000E+00  0.00000000E+00  0.00000000E+00
  0.00000000E+00  0.00000000E+00  0.00000000E+00
  0.00000000E+00  0.00000000E+00  0.00000000E+00
  0.00000000E+00  0.00000000E+00  0.00000000E+00
  0.00000000E+00  0.00000000E+00  0.00000000E+00
  0.00000000E+00  0.00000000E+00  0.00000000E+00
  0.00000000E+00  0.00000000E+00  0.00000000E+00
  0.00000000E+00  0.00000000E+00  0.00000000E+00
  0.00000000E+00  0.00000000E+00  0.00000000E+00
  0.00000000E+00  0.00000000E+00  0.00000000E+00
  0.00000000E+00  0.00000000E+00  0.00000000E+00
  0.00000000E+00  0.00000000E+00  0.00000000E+00
  0.00000000E+00  0.00000000E+00  0.00000000E+00
  0.00000000E+00  0.00000000E+00  0.00000000E+00
