Ca19 V16 P24 O96                        
   1.00000000000000     
    -5.1844380000000001    7.3588730000000000    8.8875060000000001
     5.0947170000000002   -7.2701770000000003    8.7327030000000008
    10.2865319999999993    7.3560530000000002   -0.1496910000000000
   Ca   V    P    O 
    19    16    24    96
Direct
  0.5128124088412757  0.5044537930997057  0.5011462568957029
  0.5065026031827256  0.9772945432995807  0.0189480379239676
 -0.0058924695607035  0.9760624135139078  0.5281813209792977
  0.0015502559836074  0.4806944541241868  0.0181432348109484
  0.4824830112971493  0.0070599240349541  0.4890619383075719
  0.4762524920197226  0.5243225019610731  0.9888510539860766
  0.9737651102227195  0.5199448359246260  0.4890289362266429
  0.9783522665283739  0.0141806289842037  0.9949311386781498
  0.5666093133520552  0.4205069745295085  0.2375481716202955
  0.5659348038075339  0.9147837248541579  0.7363161942947266
  0.0724215017866721  0.9185112233198338  0.2448120822003653
  0.0695228109104325  0.4143548959195580  0.7360289498397392
  0.2586417210379032  0.5823422748185884  0.4290216012958717
  0.2586394095918581  0.0823302389169221  0.9283520831729454
  0.7492829271913736  0.0764942176191837  0.4226180802153201
  0.7529403052551419  0.5795789894876054  0.9243193299867171
  0.5777874151620880  0.2527355372544615  0.9194921384368006
  0.0759564160764989  0.2469220651766808  0.4202433909116275
  0.0752778120414735  0.7480748485338985  0.9193981697693938
  0.6448240850534676  0.6444029702064600  0.6481877697730070
  0.6439890682291378  0.1394959744494866  0.1439396543841613
  0.1482072509974934  0.1405141488589530  0.6406645363495301
  0.1468541603720553  0.6387783459789023  0.1397015037763578
  0.1455433412412632  0.1482703505841684  0.1446441950608922
  0.1456166529338181  0.6478174333839685  0.6445511206679894
  0.6465343366186065  0.6486445261787795  0.1522732278075951
  0.6446077856464006  0.1472324969838928  0.6451957000523435
  0.8580435581501743  0.8614101125898617  0.8430058785688321
  0.8529450377804730  0.3549096092699446  0.3504646538496654
  0.3547729268078852  0.3564916243320942  0.8479456831784653
  0.3528009040896413  0.8544645462301003  0.3528095726417447
  0.3517496921759408  0.3497349734812696  0.3517333070399954
  0.3511113044888662  0.8493486196717176  0.8529970799612674
  0.8473562531511843  0.8481128971265223  0.3450983964857868
  0.8504449878121934  0.3499145564302447  0.8490203584980711
  0.4008755042501148  0.7502133346115452  0.5961675989929178
  0.4022180375278930  0.2499928547827722  0.0938933909004580
  0.9007250474866345  0.2470154741306011  0.5937837622111726
  0.9010325575468130  0.7497001870459469  0.0930324205876255
  0.3958508517326861  0.5998588994152961  0.2441679844475019
  0.4036898718580899  0.1015556227128818  0.7542081590852242
  0.9016704567961158  0.1023945965334268  0.2536079288228436
  0.9022360246137755  0.6026632236084326  0.7530646871622260
  0.6049823298908958  0.4059273029345098  0.7545994258008590
  0.6003556296620216  0.8998073804456668  0.2580787397428767
  0.1102344940587367  0.9056320137616004  0.7615663614174216
  0.1061659063931487  0.4053808590148757  0.2604740049653455
  0.2444785522493366  0.3965484711598276  0.5920772522706700
  0.2424520796931735  0.8940962136950554  0.0950297340441718
  0.7543047876446919  0.9007535860936742  0.6006535187575609
  0.7433571180108930  0.3957844944327030  0.0948047798635163
  0.7391599719899905  0.5967340397593109  0.3931571940271549
  0.7360415361800399  0.0923404056411310  0.8889511642060715
  0.2368250924533423  0.0920931528870299  0.3909208458360512
  0.2340661527412811  0.5913704801422073  0.8880880673966056
  0.6007259729114552  0.2457953340596139  0.3934052986960323
  0.6019574726190050  0.7447222389410193  0.8936868599211696
  0.1026502176578753  0.7523604706321071  0.3950923333209425
  0.1027619827842808  0.2478420121895546  0.8920105213525210
  0.6721057781119857  0.6001134824773302  0.4938895509709083
  0.6578126175604739  0.0822080339529987  0.9829685417207347
  0.1559143205478299  0.0786884979287541  0.4825287167149916
  0.1545836179105083  0.5800588316137590  0.9810240357978767
  0.1615834365926971  0.4888074494808239  0.5761336157575112
  0.1618437419169150  0.9879885482190884  0.0785275132100440
  0.6691123840973212  0.9905006774698722  0.5819509351486685
  0.6627971125464175  0.4899308343721309  0.0797905990379029
  0.4907728410431221  0.6685025984581854  0.5864836818636833
  0.4896054376367168  0.1651169872178161  0.0731566164436863
  0.9901019326156314  0.1635764281899310  0.5757231261704713
  0.9892764386226152  0.6652791344710614  0.0750903911130130
  0.5862182622919266  0.1647336646109238  0.4838658580568731
  0.5973277132718010  0.6719433867750119  0.9913344444487316
  0.0931515174625965  0.6655016041960811  0.4805924600791981
  0.0901495448894721  0.1618745313700229  0.9783128002306234
  0.5961477584248931  0.4815564912053297  0.6620572258024030
  0.5930221904341039  0.9854704382069688  0.1714656373988430
  0.0996381662476068  0.9827970262175413  0.6709376441723045
  0.0926157173792725  0.4826520167585147  0.1700455793610794
  0.4900389270900125  0.5861248905340164  0.1673256748019983
  0.4854368613952609  0.0789876288050164  0.6667797346998677
  0.9859562594341623  0.0806760045448447  0.1683054133102056
  0.9835998913322368  0.5807939999574088  0.6650679860246436
  0.5117664606764023  0.4192626233016376  0.8340489944145650
  0.5042119336459693  0.9133444813060237  0.3309488935718507
  0.0171053677985810  0.9176677835880859  0.8406803610502798
  0.0120927048774501  0.4159116217589999  0.3388861341247250
  0.5216885675173317  0.3392134205660400  0.4017950520035570
  0.5147839306214704  0.8298905210153277  0.9001101372613342
  0.0107029623575454  0.8324743561276805  0.4035175422896761
  0.0174684235206976  0.3349760436448534  0.9039943233955289
  0.8175862859951470  0.5040365337221175  0.4059001835761534
  0.8278806957053252  0.0167882461788150  0.9021974381881430
  0.3273601049007401  0.0145637873446552  0.4010883480834502
  0.3236467581167531  0.5129530676041757  0.8994147943752332
  0.4137228058010952  0.5073531472570751  0.3269083391723209
  0.4188406171560362  0.0093303119838056  0.8370526272630248
  0.9142962499777648  0.0095983694021538  0.3357607136143742
  0.9183547918959564  0.5105454953702029  0.8357138320394278
  0.4107446462314412  0.8349609741433759  0.5090696518530694
  0.4224320637249990  0.3353307854060681  0.0062933825394052
  0.9210345243714817  0.3311076068204242  0.5055455031410179
  0.9182319000058560  0.8311996945712148  0.0023817472052735
  0.3324270242856214  0.4185628201494330  0.5106092899095216
  0.3309542380713533  0.9143861633230459  0.0139557314205064
  0.8215052966008827  0.9045992660024552  0.4992066083520136
  0.8274317148954063  0.4137979796978800  0.0086007525234459
  0.2974286155929948  0.6846770978090515  0.5839914510592389
  0.2971057191263923  0.1894185833097754  0.0818268488331505
  0.7969023606260410  0.1848751966893783  0.5806757132739047
  0.7963807938436093  0.6883122150024337  0.0831793939432883
  0.7900305977717034  0.6011385472985836  0.7141617660231516
  0.7912290822983351  0.1026211752237727  0.2102467892783167
  0.2920548514355040  0.1022153568780488  0.7139832801875730
  0.2958284060765934  0.5853667750399635  0.1804619959126342
  0.1084491618534838  0.2895508748617319  0.2229825344460264
  0.1104600871512555  0.7896349840588092  0.7243558712001714
  0.6004649802233074  0.7915264967663523  0.2042034030849189
  0.6059991246874489  0.2889341255745694  0.7207186055095817
  0.6845146296644721  0.8037109247153776  0.6242987063913065
  0.6729692818698184  0.2954073299104752  0.0794316842797433
  0.1756112336724892  0.2953203072602388  0.5730581973802700
  0.1739229596152954  0.7937182919585652  0.0737853762760140
  0.6621565294728637  0.5709285633427573  0.3008918417418944
  0.6679730874436415  0.0652396548867284  0.7909931001860537
  0.1678135643270231  0.0721823619611596  0.2915304245856411
  0.1640377904874666  0.5693263844474864  0.7903464113487830
  0.5867079696918212  0.6678151159737127  0.8000645489887545
  0.5849533471315547  0.1850706158273331  0.2897674192095552
  0.0904285015932070  0.1968256084253654  0.7833609163000671
  0.1017359229551573  0.6970199956925704  0.2874736450847105
  0.4148663148719665  0.3096568591998146  0.1992008177767798
  0.4102438161197208  0.8128779132449685  0.7014606323505836
  0.9161775153719249  0.8142056890043702  0.1957216713078916
  0.9121806133470849  0.3095188895551080  0.6980023218159653
  0.3906313436960565  0.6978351639412744  0.3167827795378819
  0.4240090310462059  0.2029996201292754  0.8218796431201081
  0.9222823537545382  0.2041004194491977  0.3201374591328154
  0.9228447967310887  0.7050531210169418  0.8184941485834395
  0.2039548208288579  0.4296154956676416  0.3297998518907660
  0.2072618689295848  0.9283918928067927  0.8322049413417286
  0.6996576613726310  0.9220363773511076  0.3258092577738112
  0.7025700793525763  0.4272117262317948  0.8266874564381573
  0.8318276629563048  0.9234985077510383  0.6901830103732776
  0.7897165528740782  0.3983851158829859  0.2039466392202010
  0.2830473702916586  0.3964585271486745  0.7043532761328408
  0.2813672434358120  0.8938507858909690  0.2073412652817468
  0.2739620794625223  0.2082540433158399  0.3918237177857612
  0.2728055329564086  0.7067842758243933  0.8882711716270217
  0.8035414392006505  0.6974339566425716  0.3763492782984303
  0.7707540403253702  0.2092525662866155  0.8859949036649430
  0.7132039721405321  0.2889851842543688  0.3990283467757924
  0.7069927209066521  0.8036189909341983  0.8840241134784650
  0.2044509526539206  0.8165736420798401  0.4090688829822745
  0.2119709631159348  0.2977413763511615  0.9036459502617085
 
             NaN             NaN             NaN
             NaN             NaN             NaN
             NaN             NaN             NaN
             NaN             NaN             NaN
             NaN             NaN             NaN
             NaN             NaN             NaN
             NaN             NaN             NaN
             NaN             NaN             NaN
             NaN             NaN             NaN
             NaN             NaN             NaN
             NaN             NaN             NaN
             NaN             NaN             NaN
             NaN             NaN             NaN
             NaN             NaN             NaN
             NaN             NaN             NaN
             NaN             NaN             NaN
             NaN             NaN             NaN
             NaN             NaN             NaN
             NaN             NaN             NaN
             NaN             NaN             NaN
             NaN             NaN             NaN
             NaN             NaN             NaN
             NaN             NaN             NaN
             NaN             NaN             NaN
             NaN             NaN             NaN
             NaN             NaN             NaN
             NaN             NaN             NaN
             NaN             NaN             NaN
             NaN             NaN             NaN
             NaN             NaN             NaN
             NaN             NaN             NaN
             NaN             NaN             NaN
             NaN             NaN             NaN
             NaN             NaN             NaN
             NaN             NaN             NaN
             NaN             NaN             NaN
             NaN             NaN             NaN
             NaN             NaN             NaN
             NaN             NaN             NaN
             NaN             NaN             NaN
             NaN             NaN             NaN
             NaN             NaN             NaN
             NaN             NaN             NaN
             NaN             NaN             NaN
             NaN             NaN             NaN
             NaN             NaN             NaN
             NaN             NaN             NaN
             NaN             NaN             NaN
             NaN             NaN             NaN
             NaN             NaN             NaN
             NaN             NaN             NaN
             NaN             NaN             NaN
             NaN             NaN             NaN
             NaN             NaN             NaN
             NaN             NaN             NaN
             NaN             NaN             NaN
             NaN             NaN             NaN
             NaN             NaN             NaN
             NaN             NaN             NaN
             NaN             NaN             NaN
             NaN             NaN             NaN
             NaN             NaN             NaN
             NaN             NaN             NaN
             NaN             NaN             NaN
             NaN             NaN             NaN
             NaN             NaN             NaN
             NaN             NaN             NaN
             NaN             NaN             NaN
             NaN             NaN             NaN
             NaN             NaN             NaN
             NaN             NaN             NaN
             NaN             NaN             NaN
             NaN             NaN             NaN
             NaN             NaN             NaN
             NaN             NaN             NaN
             NaN             NaN             NaN
             NaN             NaN             NaN
             NaN             NaN             NaN
             NaN             NaN             NaN
             NaN             NaN             NaN
             NaN             NaN             NaN
             NaN             NaN             NaN
             NaN             NaN             NaN
             NaN             NaN             NaN
             NaN             NaN             NaN
             NaN             NaN             NaN
             NaN             NaN             NaN
             NaN             NaN             NaN
             NaN             NaN             NaN
             NaN             NaN             NaN
             NaN             NaN             NaN
             NaN             NaN             NaN
             NaN             NaN             NaN
             NaN             NaN             NaN
             NaN             NaN             NaN
             NaN             NaN             NaN
             NaN             NaN             NaN
             NaN             NaN             NaN
             NaN             NaN             NaN
             NaN             NaN             NaN
             NaN             NaN             NaN
             NaN             NaN             NaN
             NaN             NaN             NaN
             NaN             NaN             NaN
             NaN             NaN             NaN
             NaN             NaN             NaN
             NaN             NaN             NaN
             NaN             NaN             NaN
             NaN             NaN             NaN
             NaN             NaN             NaN
             NaN             NaN             NaN
             NaN             NaN             NaN
             NaN             NaN             NaN
             NaN             NaN             NaN
             NaN             NaN             NaN
             NaN             NaN             NaN
             NaN             NaN             NaN
             NaN             NaN             NaN
             NaN             NaN             NaN
             NaN             NaN             NaN
             NaN             NaN             NaN
             NaN             NaN             NaN
             NaN             NaN             NaN
             NaN             NaN             NaN
             NaN             NaN             NaN
             NaN             NaN             NaN
             NaN             NaN             NaN
             NaN             NaN             NaN
             NaN             NaN             NaN
             NaN             NaN             NaN
             NaN             NaN             NaN
             NaN             NaN             NaN
             NaN             NaN             NaN
             NaN             NaN             NaN
             NaN             NaN             NaN
             NaN             NaN             NaN
             NaN             NaN             NaN
             NaN             NaN             NaN
             NaN             NaN             NaN
             NaN             NaN             NaN
             NaN             NaN             NaN
             NaN             NaN             NaN
             NaN             NaN             NaN
             NaN             NaN             NaN
             NaN             NaN             NaN
             NaN             NaN             NaN
             NaN             NaN             NaN
             NaN             NaN             NaN
             NaN             NaN             NaN
             NaN             NaN             NaN
             NaN             NaN             NaN
             NaN             NaN             NaN
             NaN             NaN             NaN
             NaN             NaN             NaN
             NaN             NaN             NaN
