Ca19 V16 P24 O96
1.0
-5.184438 7.358873 8.887506
5.094717 -7.270177 8.732703
10.286532 7.356053 -0.149691
Ca V P O
19 16 24 96
direct
0.513412 0.523570 0.499843 Ca
0.506035 0.975809 0.021238 Ca
0.000623 0.975922 0.521537 Ca
0.001883 0.479894 0.017806 Ca
0.484580 0.004535 0.489960 Ca
0.473286 0.518709 0.996063 Ca
0.975928 0.521539 0.488722 Ca
0.978574 0.015892 0.993470 Ca
0.571427 0.422551 0.246641 Ca
0.567746 0.913410 0.737321 Ca
0.071091 0.917193 0.242382 Ca
0.068564 0.414415 0.737219 Ca
0.261889 0.581011 0.431272 Ca
0.258389 0.082091 0.927275 Ca
0.752252 0.075340 0.424966 Ca
0.753558 0.578300 0.925294 Ca
0.575680 0.249041 0.919674 Ca
0.075708 0.246811 0.420605 Ca
0.075379 0.747555 0.919743 Ca
0.643487 0.640807 0.643360 V
0.644854 0.140206 0.143686 V
0.147525 0.138920 0.641591 V
0.149053 0.637571 0.139345 V
0.146180 0.147644 0.146104 V
0.145062 0.647173 0.645487 V
0.647133 0.648988 0.148530 V
0.644796 0.147096 0.645361 V
0.856008 0.858022 0.846777 V
0.852821 0.355471 0.351521 V
0.354162 0.356353 0.848147 V
0.351995 0.854904 0.352116 V
0.350795 0.349435 0.351129 V
0.350700 0.848967 0.851118 V
0.847003 0.846536 0.348612 V
0.849869 0.348137 0.850264 V
0.400637 0.748877 0.595658 P
0.402064 0.249469 0.094859 P
0.901194 0.246588 0.594047 P
0.901634 0.748161 0.093997 P
0.396184 0.598210 0.244183 P
0.403173 0.100277 0.753065 P
0.901615 0.101366 0.253329 P
0.901087 0.601439 0.752434 P
0.605103 0.404755 0.758312 P
0.601740 0.900113 0.258217 P
0.108201 0.904658 0.761236 P
0.106651 0.405105 0.260794 P
0.242584 0.394937 0.592974 P
0.243028 0.894423 0.094348 P
0.750300 0.897466 0.598656 P
0.742300 0.394341 0.094801 P
0.738920 0.595908 0.394936 P
0.735481 0.091039 0.889913 P
0.237714 0.091821 0.390533 P
0.234525 0.591191 0.887759 P
0.601169 0.247287 0.394050 P
0.601051 0.744541 0.892654 P
0.103802 0.751902 0.394559 P
0.102453 0.247779 0.893563 P
0.665269 0.587447 0.490758 O
0.657131 0.080272 0.983904 O
0.157826 0.078727 0.483086 O
0.155188 0.579140 0.980741 O
0.160546 0.487867 0.577163 O
0.161663 0.987779 0.078460 O
0.666507 0.988940 0.580976 O
0.661337 0.488015 0.080667 O
0.488378 0.665140 0.584520 O
0.489739 0.164613 0.074892 O
0.989737 0.162332 0.574854 O
0.990136 0.664173 0.075686 O
0.590019 0.161701 0.480356 O
0.594350 0.665222 0.985174 O
0.096348 0.666629 0.481491 O
0.091771 0.163766 0.981811 O
0.595274 0.481500 0.667362 O
0.592395 0.988017 0.174604 O
0.097341 0.981081 0.669970 O
0.093352 0.481151 0.169289 O
0.492949 0.586526 0.170650 O
0.485933 0.079346 0.666301 O
0.986247 0.081694 0.167949 O
0.983909 0.581582 0.665391 O
0.512345 0.417250 0.838175 O
0.505774 0.909394 0.331942 O
0.014973 0.916770 0.840176 O
0.012409 0.415632 0.338924 O
0.515325 0.332979 0.404317 O
0.513674 0.829325 0.902136 O
0.009232 0.828807 0.401493 O
0.015047 0.332837 0.903511 O
0.821303 0.506644 0.404141 O
0.826715 0.014629 0.902606 O
0.329781 0.016103 0.400745 O
0.325151 0.514009 0.898506 O
0.413524 0.506916 0.327877 O
0.419028 0.008164 0.835745 O
0.915695 0.007398 0.334015 O
0.917197 0.508100 0.833728 O
0.411130 0.832566 0.507377 O
0.420820 0.332860 0.005516 O
0.921683 0.331680 0.506719 O
0.920356 0.831877 0.005391 O
0.329269 0.414987 0.510356 O
0.329993 0.914743 0.011652 O
0.825480 0.909836 0.503567 O
0.827801 0.414582 0.010220 O
0.295779 0.685848 0.585071 O
0.297233 0.188242 0.082905 O
0.796719 0.185611 0.580567 O
0.797073 0.686984 0.080973 O
0.789846 0.600595 0.710927 O
0.791560 0.100833 0.209206 O
0.292019 0.099326 0.711580 O
0.299310 0.582050 0.175990 O
0.109252 0.288617 0.225126 O
0.108407 0.788347 0.724989 O
0.603384 0.793592 0.201085 O
0.605761 0.288015 0.723068 O
0.679752 0.798581 0.606313 O
0.674291 0.293212 0.075915 O
0.173109 0.294072 0.575528 O
0.174458 0.793597 0.075016 O
0.669500 0.576163 0.296140 O
0.666454 0.066203 0.792051 O
0.167841 0.069469 0.292177 O
0.164312 0.568395 0.790330 O
0.588547 0.678222 0.792061 O
0.592052 0.192782 0.287530 O
0.092477 0.191185 0.787338 O
0.105840 0.693496 0.288722 O
0.415072 0.311448 0.198760 O
0.411935 0.812711 0.700068 O
0.914534 0.809545 0.198525 O
0.913391 0.307087 0.699244 O
0.386669 0.696830 0.315565 O
0.420901 0.201666 0.821734 O
0.920067 0.202063 0.322294 O
0.920286 0.702191 0.821228 O
0.204293 0.430917 0.329666 O
0.205604 0.928116 0.831202 O
0.700461 0.921333 0.327159 O
0.703323 0.425991 0.828950 O
0.815331 0.913442 0.697267 O
0.786384 0.395347 0.204937 O
0.283199 0.395822 0.704503 O
0.284769 0.895336 0.205544 O
0.272387 0.208672 0.389893 O
0.271406 0.707272 0.887695 O
0.798545 0.701288 0.393229 O
0.771601 0.207365 0.887865 O
0.708709 0.300469 0.403094 O
0.706560 0.803540 0.891961 O
0.201959 0.822143 0.407231 O
0.209359 0.302908 0.903486 O
