Ca1 Fe4 S6 O24
1.0
7.606457 0.127044 4.470873
2.603481 7.145963 4.509869
0.170976 0.165587 8.827867
Ca Fe S O
1 4 6 24
direct
0.279104 0.833900 0.596982 Ca
0.655289 0.639886 0.647439 Fe
0.135141 0.145652 0.140715 Fe
0.840513 0.846133 0.853699 Fe
0.359527 0.352051 0.348788 Fe
0.953205 0.249267 0.528059 S
0.451232 0.036405 0.744719 S
0.540221 0.964872 0.245285 S
0.747549 0.451320 0.044043 S
0.248010 0.535168 0.957488 S
0.046191 0.748269 0.457869 S
0.404128 0.570980 0.774415 O
0.914841 0.281780 0.049312 O
0.802196 0.417378 0.562101 O
0.070755 0.910946 0.285309 O
0.578116 0.784876 0.406045 O
0.306422 0.046280 0.926369 O
0.681950 0.946664 0.067157 O
0.201907 0.577887 0.430357 O
0.082914 0.709977 0.935723 O
0.409287 0.218776 0.593499 O
0.929923 0.078798 0.699001 O
0.591931 0.426462 0.223762 O
0.956508 0.234195 0.369718 O
0.452539 0.889015 0.709301 O
0.349614 1.000091 0.259931 O
0.691211 0.493871 0.892365 O
0.214270 0.375578 0.988500 O
0.867001 0.735690 0.510872 O
0.137876 0.245686 0.491345 O
0.637266 -0.014121 0.743743 O
0.534743 0.116532 0.272645 O
0.790757 0.609013 0.006585 O
0.292689 0.501888 0.111529 O
0.047122 0.771149 0.612244 O
