Ca1 Ni4 S6 O24
1.0
7.539908 0.279458 4.272310
2.786341 6.883077 4.585596
0.649501 0.258943 8.759243
Ca Ni S O
1 4 6 24
direct
0.403932 0.640254 0.536462 Ca
0.647279 0.646199 0.644218 Ni
0.142607 0.149272 0.150650 Ni
0.847419 0.842875 0.844140 Ni
0.354545 0.349697 0.350809 Ni
0.951477 0.246245 0.538493 S
0.453537 0.035774 0.752113 S
0.541669 0.962255 0.238928 S
0.751493 0.453011 0.043720 S
0.243385 0.537967 0.955655 S
0.043329 0.750627 0.452333 S
0.385459 0.603272 0.757126 O
0.943172 0.300144 0.033312 O
0.772141 0.393283 0.603657 O
0.043360 0.938726 0.300497 O
0.606811 0.762044 0.385576 O
0.314288 1.027015 0.944831 O
0.675509 0.972822 0.043842 O
0.218081 0.599318 0.395243 O
0.047992 0.689463 0.965063 O
0.393131 0.236046 0.607189 O
0.962258 0.049097 0.688993 O
0.607075 0.396272 0.239095 O
0.952334 0.266159 0.361100 O
0.466856 0.891592 0.706549 O
0.343225 0.980042 0.274411 O
0.702199 0.482117 0.894804 O
0.254937 0.354415 0.976415 O
0.875409 0.732841 0.485287 O
0.119257 0.266292 0.507995 O
0.646577 0.007169 0.730522 O
0.525446 0.109448 0.280582 O
0.747686 0.632583 0.020267 O
0.289794 0.512699 0.104109 O
0.045082 0.731459 0.629467 O
