Co4 P12                                 
   1.00000000000000     
     3.8258114345169512    3.8257523163816840    3.8257268661218817
     3.8257226287758090   -3.8257625965937732   -3.8256278485752739
    -3.8258217476508696    3.8257126993418122   -3.8256770146516264
   Co   P 
     4    12
Direct
  0.0000027696856631  0.4999959958485404  0.0000114965606078
  0.4999844639222961  0.4999959956170724  0.4999931859562000
  0.0000027480852250  0.9999912469646892  0.5000067640017967
  0.4999845043214226  0.9999912641227608  0.9999885286294090
  0.8550444792609879  0.5061292423632868  0.6510846572369340
  0.1449643256166007  0.4938747978635202  0.3489105839895858
  0.1449649362420069  0.7960551586189544  0.6510895716287959
  0.8550438953215752  0.2039584286468547  0.3489152060163761
  0.2039460929301087  0.3489098967422587  0.8550345929095184
  0.7960513513901483  0.6510873540123839  0.1449656162749798
  0.4938749424700450  0.3489110262358265  0.1449639474385905
  0.5061221110206237  0.6510862235880915  0.8550358614431658
  0.3489212787926504  0.1449693695767464  0.4938851482530736
  0.6510854134881308  0.8550373173451028  0.5061148521699821
  0.3489217421869119  0.8550361747430191  0.2039516289756148
  0.6510849452656110  0.1449705077108852  0.7960483585153841
 
  0.00000000E+00  0.00000000E+00  0.00000000E+00
  0.00000000E+00  0.00000000E+00  0.00000000E+00
  0.00000000E+00  0.00000000E+00  0.00000000E+00
  0.00000000E+00  0.00000000E+00  0.00000000E+00
  0.00000000E+00  0.00000000E+00  0.00000000E+00
  0.00000000E+00  0.00000000E+00  0.00000000E+00
  0.00000000E+00  0.00000000E+00  0.00000000E+00
  0.00000000E+00  0.00000000E+00  0.00000000E+00
  0.00000000E+00  0.00000000E+00  0.00000000E+00
  0.00000000E+00  0.00000000E+00  0.00000000E+00
  0.00000000E+00  0.00000000E+00  0.00000000E+00
  0.00000000E+00  0.00000000E+00  0.00000000E+00
  0.00000000E+00  0.00000000E+00  0.00000000E+00
  0.00000000E+00  0.00000000E+00  0.00000000E+00
  0.00000000E+00  0.00000000E+00  0.00000000E+00
  0.00000000E+00  0.00000000E+00  0.00000000E+00
