Co4 P12
1.0
3.853650 3.853650 3.853650
3.853650 -3.853650 -3.853650
-3.853650 3.853650 -3.853650
Co P
4 12
direct
0.000000 0.500000 0.000000 Co0+
0.500000 0.500000 0.500000 Co0+
0.000000 1.000000 0.500000 Co0+
0.500000 0.000000 0.000000 Co0+
0.854700 0.506500 0.651800 P0+
0.145300 0.493500 0.348200 P0+
0.145300 0.797100 0.651800 P0+
0.854700 0.202900 0.348200 P0+
0.202900 0.348200 0.854700 P0+
0.797100 0.651800 0.145300 P0+
0.493500 0.348200 0.145300 P0+
0.506500 0.651800 0.854700 P0+
0.348200 0.145300 0.493500 P0+
0.651800 0.854700 0.506500 P0+
0.348200 0.854700 0.202900 P0+
0.651800 0.145300 0.797100 P0+
