Ca1 V2 O6                               
   1.00000000000000     
     0.0067190862162150   -3.6419127333946832   -0.0053553180065428
    -4.8601031638227283    1.8318198928711511    1.2560780416555946
    -0.0726728604312321   -0.0103611540931205   -7.1384561024887789
   Ca   V    O 
     1     2     6
Direct
  0.9999946897190810  0.9999970411253543  0.0000042473166602
  0.2296408427685250  0.4655538005410236  0.6692824870922607
  0.7703652580328821  0.5344501188278841  0.3307186632486605
  0.0800629852805343  0.1649848486156884  0.7221671145189461
  0.9199260061683816  0.8350092207979358  0.2778341421852630
  0.6446591847900862  0.2867071281709883  0.1230159358490965
  0.3553285225345064  0.7132648835344853  0.8769883437197166
  0.2495570414303856  0.4965474835491079  0.3971535393317325
  0.7504654692756318  0.5034854748375395  0.6028355267376639
 
  0.00000000E+00  0.00000000E+00  0.00000000E+00
  0.00000000E+00  0.00000000E+00  0.00000000E+00
  0.00000000E+00  0.00000000E+00  0.00000000E+00
  0.00000000E+00  0.00000000E+00  0.00000000E+00
  0.00000000E+00  0.00000000E+00  0.00000000E+00
  0.00000000E+00  0.00000000E+00  0.00000000E+00
  0.00000000E+00  0.00000000E+00  0.00000000E+00
  0.00000000E+00  0.00000000E+00  0.00000000E+00
  0.00000000E+00  0.00000000E+00  0.00000000E+00
