Ca4 Ni4 P6 O24                          
   1.00000000000000     
     2.5384229999999999    7.2089569999999998    4.3221480000000003
    -0.0107310000000000   -0.0133820000000000    8.7009460000000001
     7.6365280000000002    0.0139520000000000    4.2994659999999998
   Ca   Ni   P    O 
     4     4     6    24
Direct
  0.2564648547349245  0.8755435108337030  0.5745299315377577
  0.9764947730205659  0.9712471360507166  0.0210899374263100
  0.4026629962822388  0.7266525279540562  0.1137928407913241
  0.1565765070305961  0.3791804140570136  0.7556350650980818
  0.6517234529189393  0.6161002541027228  0.6254978364100183
  0.1374462214158059  0.1338194766391466  0.1497378588802158
  0.8474467482449658  0.8462052969126272  0.8521901135482366
  0.3771552263226620  0.3377590610130605  0.3558161576741251
  0.2591955551198752  0.5450877806243229  0.9447268840627885
  0.0439411569583591  0.7400768796934334  0.4542138163426409
  0.9772937917577834  0.2425174481222712  0.5613184467344883
  0.4547238152379661  0.0065884458091130  0.7441902486302091
  0.5457523469634713  0.9410716164546682  0.2388696795700500
  0.7653646119432568  0.4476071780581440  0.0150227709396525
  0.5984916846788054  0.7511387925183036  0.3804104115033191
  0.2555539777903721  0.0344516118977341  0.9013731202524974
  0.3996075546733397  0.5668809769442884  0.7463106791955162
  0.9161603581971012  0.2458834574612047  0.0264498182127108
  0.7898419104866924  0.3817762116087073  0.5624240135943771
  0.0764513813654293  0.8862936581807801  0.2542978927501739
  0.9676634210846397  0.0678679392415649  0.7325844752774174
  0.6154008559752565  0.4404172822549677  0.2058843819793973
  0.7014993340027614  0.9696328169251293  0.0634245371821909
  0.2401681333081119  0.5819887840083449  0.4355096826433119
  0.0990767617739493  0.7184411077142125  0.9269645423374904
  0.4559081747365767  0.1969787608876194  0.6075283842644907
  0.2161125290892266  0.3635145472951047  0.9939396007058747
  0.8924942801122743  0.6815128037665479  0.5007674190713207
  0.0741168499100028  0.1658881334101187  0.3935702689278969
  0.4633496149196049  0.8744016454972887  0.6697102105169449
  0.3840500973420353  0.9337708685654346  0.2119345851233016
  0.6746372956649647  0.4993690112508956  0.8795929446528099
  0.3140530363844128  0.5244737305985525  0.0919964292227510
  0.0256981128640559  0.8029970181939442  0.5922221087758667
  0.1092599013953823  0.3049984349378456  0.5621198128144457
  0.5898489874305989  0.9104162721033338  0.8397897874648308
  0.4654455767920699  0.0920253045456609  0.3164133994607171
  0.8674005234704323  0.5651532675105919  0.9530400946830826
 
             NaN             NaN             NaN
             NaN             NaN             NaN
             NaN             NaN             NaN
             NaN             NaN             NaN
             NaN             NaN             NaN
             NaN             NaN             NaN
             NaN             NaN             NaN
             NaN             NaN             NaN
             NaN             NaN             NaN
             NaN             NaN             NaN
             NaN             NaN             NaN
             NaN             NaN             NaN
             NaN             NaN             NaN
             NaN             NaN             NaN
             NaN             NaN             NaN
             NaN             NaN             NaN
             NaN             NaN             NaN
             NaN             NaN             NaN
             NaN             NaN             NaN
             NaN             NaN             NaN
             NaN             NaN             NaN
             NaN             NaN             NaN
             NaN             NaN             NaN
             NaN             NaN             NaN
             NaN             NaN             NaN
             NaN             NaN             NaN
             NaN             NaN             NaN
             NaN             NaN             NaN
             NaN             NaN             NaN
             NaN             NaN             NaN
             NaN             NaN             NaN
             NaN             NaN             NaN
             NaN             NaN             NaN
             NaN             NaN             NaN
             NaN             NaN             NaN
             NaN             NaN             NaN
             NaN             NaN             NaN
             NaN             NaN             NaN
