Ca1 Fe4 S6 O24                          
   1.00000000000000     
     7.5971010000000003    0.1456450000000000    4.4967670000000002
     2.6221100000000002    7.1281350000000003    4.5287420000000003
     0.2017310000000000    0.1791750000000000    8.8318619999999992
   Ca   Fe   S    O 
     1     4     6    24
Direct
  0.2561616702062094  0.8447957818716793  0.5888284360365232
  0.6600104374313276  0.6365239133423083  0.6460937308658534
  0.1379951273204731  0.1520257215611253  0.1337758643595201
  0.8335691126657113  0.8417541100186929  0.8566422746048331
  0.3599290944093573  0.3462427228748426  0.3569305702655768
  0.9603691847455097  0.2496751264450607  0.5212842741246332
  0.4424340727575277  0.0267237239554323  0.7499955539073638
  0.5514077218100346  0.9664649087234868  0.2388906882664429
  0.7457395250140255  0.4553889591256412  0.0524311738034033
  0.2569569114971020  0.5250839815832224  0.9535195313780718
  0.0452454734933070  0.7420642834933990  0.4593869717922950
  0.4205820553996302  0.5602149006962335  0.7750673364660559
  0.9219003213214891  0.2912936903872719  0.0368316189551510
  0.7961091316960193  0.3899942873055417  0.6006417364188784
  0.0475824328187295  0.9347255822288453  0.3304845294714887
  0.5883704969547109  0.7779220622051549  0.3941806599215428
  0.3042633562493801  0.0183597026205331  0.9415259343440117
  0.6936667484792350  0.9605400867770033  0.0545120132334638
  0.2225692225185198  0.6021632297966735  0.3878562277461978
  0.0941314792733744  0.7045092734256020  0.9235058002005978
  0.3900047429641948  0.2197874210581711  0.6121678919150347
  0.9493296448448220  0.0557108827253354  0.6564206491629486
  0.5972391413109731  0.4061071536903049  0.2336152196236769
  0.9686241359355546  0.2837938418190123  0.3370317721179961
  0.4452538022806920  0.8903591630265503  0.6981822340096141
  0.3591220218091453  0.0079720663295998  0.2494583652398133
  0.6853542120801389  0.5223527523207158  0.8947214127461316
  0.2297108731306049  0.3691250149493807  0.9669794836503424
  0.8820061884631460  0.7220967350621742  0.4789895947651112
  0.1399502232676656  0.2405041554115554  0.5056433261691232
  0.6337177939299968  0.9724046409945520  0.7434265036699064
  0.5440700323856040  0.1093901167231939  0.2800771382114497
  0.7767050753118064  0.6101355438205274  0.0406550927583136
  0.2917366881285268  0.4822255013159253  0.1171935433596617
  0.0342417142448928  0.7145641000577857  0.6462609266891970
 
             NaN             NaN             NaN
             NaN             NaN             NaN
             NaN             NaN             NaN
             NaN             NaN             NaN
             NaN             NaN             NaN
             NaN             NaN             NaN
             NaN             NaN             NaN
             NaN             NaN             NaN
             NaN             NaN             NaN
             NaN             NaN             NaN
             NaN             NaN             NaN
             NaN             NaN             NaN
             NaN             NaN             NaN
             NaN             NaN             NaN
             NaN             NaN             NaN
             NaN             NaN             NaN
             NaN             NaN             NaN
             NaN             NaN             NaN
             NaN             NaN             NaN
             NaN             NaN             NaN
             NaN             NaN             NaN
             NaN             NaN             NaN
             NaN             NaN             NaN
             NaN             NaN             NaN
             NaN             NaN             NaN
             NaN             NaN             NaN
             NaN             NaN             NaN
             NaN             NaN             NaN
             NaN             NaN             NaN
             NaN             NaN             NaN
             NaN             NaN             NaN
             NaN             NaN             NaN
             NaN             NaN             NaN
             NaN             NaN             NaN
             NaN             NaN             NaN
