Ca4 Ni4 P6 O24
1.0
2.537627 7.194463 4.309995
-0.002071 -0.030237 8.707086
7.647601 -0.001496 4.309942
Ca Ni P O
4 4 6 24
direct
0.243867 0.882979 0.595405 Ca
0.964954 1.004576 0.023015 Ca
0.405327 0.744766 0.111954 Ca
0.151162 0.401246 0.742431 Ca
0.648537 0.627434 0.630283 Ni
0.137255 0.155742 0.159048 Ni
0.837269 0.856036 0.856523 Ni
0.359122 0.345091 0.351513 Ni
0.248143 0.554533 0.953521 P
0.035551 0.751932 0.449354 P
0.958491 0.253124 0.558790 P
0.449855 0.032836 0.739909 P
0.536260 0.951232 0.246650 P
0.750035 0.454527 0.030646 P
0.556074 0.773119 0.413405 O
0.259491 0.060558 0.905060 O
0.402319 0.576032 0.761969 O
0.925874 0.281577 0.040161 O
0.778862 0.414636 0.557150 O
0.068470 0.914050 0.266158 O
0.930811 0.083308 0.738848 O
0.585196 0.426803 0.207460 O
0.714119 0.946541 0.082714 O
0.223066 0.588427 0.420062 O
0.087576 0.743814 0.921943 O
0.434052 0.220282 0.585581 O
0.193522 0.393694 0.992016 O
0.869360 0.714350 0.484507 O
0.038963 0.178016 0.401220 O
0.464053 0.874208 0.697182 O
0.378130 0.962623 0.206224 O
0.713840 0.492132 0.860534 O
0.296571 0.533634 0.108176 O
0.023035 0.777166 0.618580 O
0.109288 0.297996 0.556919 O
0.600896 -0.028797 0.813780 O
0.466711 0.118865 0.305695 O
0.780911 0.623364 0.009570 O
