Ca2 Mn4 S6 O24                          
   1.00000000000000     
     7.7885190000000000    0.1358240000000000    4.4666509999999997
     2.6831119999999999    7.3121460000000003    4.4831659999999998
     0.1225950000000000    0.1084080000000000    8.8809439999999995
   Ca   Mn   S    O 
     2     4     6    24
Direct
  0.3036338321384250  0.7403421167149702  0.5401897788476436
  0.9891008709372645  1.0190043827351734 -0.0173569070320270
  0.6597975677165011  0.6237015944165031  0.6606114191348819
  0.1512746602037000  0.1562111298912217  0.1364837471866836
  0.8294589744914332  0.8515910287700772  0.8486173176714376
  0.3557178815848541  0.3608418148835597  0.3547854457348909
  0.9645181826324379  0.2462087007070168  0.5455997952623963
  0.4349836707180237  0.0345165154590158  0.7532990724128534
  0.5527483373243481  0.9578219237996277  0.2435134222762113
  0.7496465706561960  0.4420602910917675  0.0526793430332822
  0.2497602667517806  0.5537240324501358  0.9540632143974579
  0.0366972612624248  0.7557138847690467  0.4386750144885257
  0.4186049490978466  0.5449753507065619  0.7853311176254609
  0.8946786887068345  0.2564309651589390  0.0977700688224202
  0.7979028394000652  0.4095320953194345  0.5397769380732169
  0.0638621351970051  0.8993654208248725  0.2545749803012109
  0.5728289925846327  0.7961986517707512  0.4142110232999756
  0.2486960090216605  0.0843619259703960  0.8961662893193511
  0.7285465879125911  0.9248304339782438  0.0893342630380624
  0.2168311184812793  0.6023456626785025  0.4432107188291190
  0.1095699849205855  0.7380751794797452  0.8863054316511295
  0.4475177179075967  0.1957319537230325  0.5859536429938431
  0.9229868418713384  0.0942334783800576  0.7270885390730271
  0.5846217189127696  0.4556167161237565  0.2158431762251024
  0.0291502340931994  0.1768145672291097  0.3978129573914651
  0.4536913646522108  0.8800284202956455  0.7207929498088291
  0.3994292450669643  0.9630364768527035  0.2169950948231963
  0.7134096976630557  0.4511776949578998  0.9033434273294796
  0.1923193732246473  0.4048740957323861  1.0078365219420662
  0.8953872443402189  0.6952085698890272  0.4815522628013498
  0.1126445901596112  0.2809142323256086  0.5361816421978856
  0.5736738314715896  0.9785427361763372  0.8298798019814825
  0.5109851693975674  0.1279392422576058  0.2612193353590959
  0.8214143650661965  0.5852745042528199 -0.0117356455065758
  0.2772188241470767  0.5502866256459733  0.1031763325634731
 -0.0079229307602529  0.8300152136240524  0.5783139541369624
 
             NaN             NaN             NaN
             NaN             NaN             NaN
             NaN             NaN             NaN
             NaN             NaN             NaN
             NaN             NaN             NaN
             NaN             NaN             NaN
             NaN             NaN             NaN
             NaN             NaN             NaN
             NaN             NaN             NaN
             NaN             NaN             NaN
             NaN             NaN             NaN
             NaN             NaN             NaN
             NaN             NaN             NaN
             NaN             NaN             NaN
             NaN             NaN             NaN
             NaN             NaN             NaN
             NaN             NaN             NaN
             NaN             NaN             NaN
             NaN             NaN             NaN
             NaN             NaN             NaN
             NaN             NaN             NaN
             NaN             NaN             NaN
             NaN             NaN             NaN
             NaN             NaN             NaN
             NaN             NaN             NaN
             NaN             NaN             NaN
             NaN             NaN             NaN
             NaN             NaN             NaN
             NaN             NaN             NaN
             NaN             NaN             NaN
             NaN             NaN             NaN
             NaN             NaN             NaN
             NaN             NaN             NaN
             NaN             NaN             NaN
             NaN             NaN             NaN
             NaN             NaN             NaN
