Ca2 Mn4 S6 O24
1.0
7.788519 0.135824 4.466651
2.683112 7.312146 4.483166
0.122595 0.108408 8.880944
Ca Mn S O
2 4 6 24
direct
0.341411 0.730164 0.548105 Ca
0.984109 0.997867 1.010698 Ca
0.652074 0.637108 0.647514 Mn
0.145013 0.159992 0.137540 Mn
0.830151 0.841837 0.851446 Mn
0.358814 0.357971 0.350053 Mn
0.961917 0.249371 0.544937 S
0.429855 0.036943 0.750762 S
0.553313 0.957096 0.241076 S
0.748475 0.444358 0.049212 S
0.248594 0.553657 0.948173 S
0.044589 0.751033 0.449708 S
0.400659 0.571901 0.766854 O
0.896866 0.259101 0.078643 O
0.786088 0.402991 0.557593 O
0.067422 0.902512 0.268463 O
0.570075 0.782422 0.400666 O
0.250647 0.070404 0.903137 O
0.725270 0.930057 0.081470 O
0.216828 0.592244 0.441428 O
0.092453 0.735391 0.919574 O
0.434714 0.209088 0.596337 O
0.946930 0.091736 0.726068 O
0.590659 0.442198 0.221001 O
1.007675 0.179997 0.403708 O
0.442851 0.901544 0.694901 O
0.394186 0.996819 0.202637 O
0.699852 0.477329 0.898107 O
0.195510 0.405532 0.990824 O
0.889436 0.708503 0.491183 O
0.111710 0.298556 0.507355 O
0.578625 -0.036018 0.818811 O
0.531585 0.105745 0.281670 O
0.818853 0.581319 0.003914 O
0.298621 0.526679 0.094223 O
0.010413 0.812709 0.593979 O
