Ca1 Mn7 O12                             
   1.00000000000000     
     0.0000139776908958   -0.0000086313555782    6.3593629468194379
     5.2483246449448799   -3.0294251297662003   -2.1197728662230571
    -0.0003586353424929    6.0602201705186465   -2.1197953326137782
   Ca   Mn   O 
     1     7    12
Direct
  0.0000266854301643  0.9999978743102531  0.9999998456979071
  0.4999650666929512  0.5000292585173440  0.0000105916389188
  0.9999340133817682  0.4999838021813900  0.4999689483686041
  0.4999580036825364  0.9999922584895984  0.5000159529873685
  0.9999715370670543  0.5000351933637575  0.0000149755870353
  0.4999345419652315  0.4999757446208903  0.4999635336677386
  0.9999590386660984  0.9999844391853969  0.5000228726805531
  0.5002582536489513  0.0000031948284658  0.0000059653338766
  0.8693623945024385  0.6773313842941633  0.1728451950294456
  0.1920211400864673  0.4955092793483047  0.3226564158233671
  0.6965169691558515  0.8271510969419822  0.5045061419119747
  0.1306112123962961  0.3226843421612031  0.8271705768071058
  0.8079353724802374  0.5044836590573283  0.6773186370305240
  0.3034412121244614  0.1728348949721834  0.4954977723734828
  0.4800500099548302  0.2978984734339392  0.1639793916050394
  0.1821488661855994  0.8660773077043586  0.7021021195449606
  0.3160771343656847  0.8360346478608705  0.1339426984984939
  0.5199643653583337  0.7020569162388171  0.8359930857366464
  0.8179108486480686  0.1339376218773083  0.2979415978153526
  0.6839533342069757  0.1639986106124525  0.8660436818615977
 
  0.00000000E+00  0.00000000E+00  0.00000000E+00
  0.00000000E+00  0.00000000E+00  0.00000000E+00
  0.00000000E+00  0.00000000E+00  0.00000000E+00
  0.00000000E+00  0.00000000E+00  0.00000000E+00
  0.00000000E+00  0.00000000E+00  0.00000000E+00
  0.00000000E+00  0.00000000E+00  0.00000000E+00
  0.00000000E+00  0.00000000E+00  0.00000000E+00
  0.00000000E+00  0.00000000E+00  0.00000000E+00
  0.00000000E+00  0.00000000E+00  0.00000000E+00
  0.00000000E+00  0.00000000E+00  0.00000000E+00
  0.00000000E+00  0.00000000E+00  0.00000000E+00
  0.00000000E+00  0.00000000E+00  0.00000000E+00
  0.00000000E+00  0.00000000E+00  0.00000000E+00
  0.00000000E+00  0.00000000E+00  0.00000000E+00
  0.00000000E+00  0.00000000E+00  0.00000000E+00
  0.00000000E+00  0.00000000E+00  0.00000000E+00
  0.00000000E+00  0.00000000E+00  0.00000000E+00
  0.00000000E+00  0.00000000E+00  0.00000000E+00
  0.00000000E+00  0.00000000E+00  0.00000000E+00
  0.00000000E+00  0.00000000E+00  0.00000000E+00
