Ca1 Cr4 P6 O24                          
   1.00000000000000     
     2.6616409999999999    6.8807440000000000    4.5341649999999998
     0.3773930000000000    0.2002110000000000    8.6534189999999995
     7.3855950000000004    0.2114880000000000    4.4740149999999996
   Ca   Cr   P    O 
     1     4     6    24
Direct
  0.4366336008978547  0.5497123319562791  0.5138169986452568
  0.6470183361786985  0.6454190002901665  0.6418151090484682
  0.1451394746234585  0.1500328593348606  0.1380779200040947
  0.8454121991530679  0.8561817873100441  0.8590177428363651
  0.3427044444543249  0.3560419472922288  0.3627162334336218
  0.2476826559267600  0.5266346086956625  0.9664001139898937
  0.0205539123385917  0.7617578744421739  0.4599490749110554
  0.9634203536372349  0.2489705597142024  0.5329559901848545
  0.4644660715610520  0.0408501595792880  0.7490183270799059
  0.5285380848556461  0.9658530599882689  0.2489254871721070
  0.7393189811084608  0.4767526103999435  0.0387871466906408
  0.5944272048761755  0.7590928428384038  0.4030358498950151
  0.3021547091186732  0.0219114113770831  0.9565962033475012
  0.3963618468705360  0.6116975817528756  0.7670431648175906
  0.9494788245270513  0.3290267175543475  0.0254274074668295
  0.7548962383756211  0.3980665146854964  0.5979604442531916
 -0.0002071412322011  0.9712693260992670  0.3145128217643714
  0.9863725784548697  0.0377933684514137  0.6768303101402714
  0.5859055707629873  0.4025074811562338  0.2390194475377927
  0.6947459044184363  0.9799070310665794  0.0452540662087552
  0.2276424495125213  0.6129228414573290  0.3873851713227481
  0.0378103567682072  0.6728744200383646  0.9734524510432446
  0.3931888821411372  0.2507331405496859  0.6026259045262143
  0.2859462486703586  0.3339807957088075  0.9618075110370903
  0.8737631797823547  0.7000498659010351  0.4791918141413970
  1.0088966763204530  0.2742064301706695  0.3233383740482410
  0.5056778538463329  0.8848734123551714  0.6891479263202407
  0.3422009348091926  0.9704403847024204  0.2607373338661320
  0.7057765903695248  0.4987733774883346  0.8695944385834029
  0.2804629486812883  0.5012802633260223  0.1343658728088089
  0.0007759893470442  0.7286692107999914  0.6630505099691073
  0.1127882914963744  0.3032590727867562  0.5225773068288999
  0.6554809172536781  0.0242519149212355  0.7396400754512618
  0.4874572968466079  0.1235814046156258  0.3068519234634569
  0.7066761005139656  0.6734526051202400  0.0290037694443482
 
             NaN             NaN             NaN
             NaN             NaN             NaN
             NaN             NaN             NaN
             NaN             NaN             NaN
             NaN             NaN             NaN
             NaN             NaN             NaN
             NaN             NaN             NaN
             NaN             NaN             NaN
             NaN             NaN             NaN
             NaN             NaN             NaN
             NaN             NaN             NaN
             NaN             NaN             NaN
             NaN             NaN             NaN
             NaN             NaN             NaN
             NaN             NaN             NaN
             NaN             NaN             NaN
             NaN             NaN             NaN
             NaN             NaN             NaN
             NaN             NaN             NaN
             NaN             NaN             NaN
             NaN             NaN             NaN
             NaN             NaN             NaN
             NaN             NaN             NaN
             NaN             NaN             NaN
             NaN             NaN             NaN
             NaN             NaN             NaN
             NaN             NaN             NaN
             NaN             NaN             NaN
             NaN             NaN             NaN
             NaN             NaN             NaN
             NaN             NaN             NaN
             NaN             NaN             NaN
             NaN             NaN             NaN
             NaN             NaN             NaN
             NaN             NaN             NaN
