Ca1 Cr4 P6 O24
1.0
2.661641 6.880744 4.534165
0.377393 0.200211 8.653419
7.385595 0.211488 4.474015
Ca Cr P O
1 4 6 24
direct
0.451276 0.549605 0.523268 Ca
0.644350 0.640741 0.643813 Cr
0.144425 0.143163 0.140507 Cr
0.854916 0.849513 0.851324 Cr
0.352431 0.351248 0.354350 Cr
0.247138 0.528325 0.962331 P
0.033366 0.748446 0.465197 P
0.960531 0.249043 0.526581 P
0.467625 0.031422 0.747591 P
0.530157 0.964965 0.246350 P
0.747170 0.464692 0.034091 P
0.599550 0.759819 0.399476 O
0.316209 0.016289 0.958485 O
0.394839 0.605756 0.757798 O
0.955264 0.313353 0.015126 O
0.755938 0.397211 0.596900 O
0.016297 0.954148 0.310189 O
0.974837 0.038881 0.677141 O
0.598450 0.398224 0.240645 O
0.681518 0.980102 0.040087 O
0.235654 0.596195 0.390515 O
0.039769 0.684717 0.980275 O
0.391810 0.237673 0.599693 O
0.269464 0.338161 0.969182 O
0.872583 0.695599 0.502326 O
0.983391 0.270819 0.327068 O
0.489173 0.875560 0.700136 O
0.330918 0.982473 0.273546 O
0.693732 0.488927 0.878000 O
0.301043 0.493353 0.122033 O
0.031169 0.721700 0.656603 O
0.119620 0.290045 0.506098 O
0.664197 0.013597 0.723314 O
0.504895 0.121791 0.299141 O
0.729707 0.663609 0.006927 O
