Ca1 Fe4 S6 O24                          
   1.00000000000000     
     7.5783899999999997    0.1828480000000000    4.5485530000000001
     2.6593680000000002    7.0924800000000001    4.5664860000000003
     0.2632410000000000    0.2063500000000000    8.8398529999999997
   Ca   Fe   S    O 
     1     4     6    24
Direct
  0.2739343499314240  0.7592885207506013  0.5544968487725067
  0.6645508453771714  0.6308315313267485  0.6486505376660149
  0.1422744447707239  0.1524521154246637  0.1335669071942130
  0.8309441191700611  0.8520415944663099  0.8554118692716953
  0.3564006853637537  0.3518634401272850  0.3602582058778223
  0.9706210561653114  0.2415570048753852  0.5228014272394467
  0.4513763383520136  0.0372167265342368  0.7517444797582336
  0.5440852005265762  0.9649515827725559  0.2467979225200645
  0.7410842910685056  0.4603001851254109  0.0541313327499590
  0.2584715477594896  0.5293670379329541  0.9565927507890954
  0.0288445368419880  0.7466499414153760  0.4505116139175446
  0.4215669309297827  0.5733451645499080  0.7771585604275315
  0.9297081103396024  0.3113122176604091  0.0324308842629186
  0.7878041929615839  0.3630335803177286  0.6191856587291318
  0.0138709095061811  0.9446198366034273  0.3249851824894120
  0.5869854028857732  0.7733643744784565  0.3995012541267408
  0.3144360723669695  0.0114984637618854  0.9488674294571557
  0.6906120087506911  0.9657484385516804  0.0585208639253755
  0.2316996106298319  0.6200951340826597  0.3915019863840578
  0.0875048171310086  0.6938760961724544  0.9154647452949567
  0.3758211572994677  0.2316281307116095  0.6226333772354302
  0.9965417782464121  0.0341302324345724  0.6412597042376282
  0.6007807605930620  0.3966330835100271  0.2404408717886140
  0.9788713734442719  0.2805597515490714  0.3361939368125967
  0.4875918261428309  0.8909699566267382  0.6931194950085885
  0.3551178743692649  0.9955247740852300  0.2578986397423800
  0.6847512090086869  0.5092533427659011  0.9009139301396530
  0.2602008477316747  0.3547513978240453  0.9731764756005381
  0.9016580609305502  0.6904824806017016  0.4525766908488345
  0.1294011864269125  0.2724640953784307  0.5023476829117353
  0.6325877762207621  0.0196757558270812  0.7412838138776745
  0.5262456357499703  0.1113916603129782  0.2893976552962991
  0.7447275918872960  0.6333116679590468  0.0414766101679887
  0.2763213012060004  0.5102535508536254  0.1196309040755751
 -0.0133175672332496  0.7216252314081449  0.6490111094186014
 
             NaN             NaN             NaN
             NaN             NaN             NaN
             NaN             NaN             NaN
             NaN             NaN             NaN
             NaN             NaN             NaN
             NaN             NaN             NaN
             NaN             NaN             NaN
             NaN             NaN             NaN
             NaN             NaN             NaN
             NaN             NaN             NaN
             NaN             NaN             NaN
             NaN             NaN             NaN
             NaN             NaN             NaN
             NaN             NaN             NaN
             NaN             NaN             NaN
             NaN             NaN             NaN
             NaN             NaN             NaN
             NaN             NaN             NaN
             NaN             NaN             NaN
             NaN             NaN             NaN
             NaN             NaN             NaN
             NaN             NaN             NaN
             NaN             NaN             NaN
             NaN             NaN             NaN
             NaN             NaN             NaN
             NaN             NaN             NaN
             NaN             NaN             NaN
             NaN             NaN             NaN
             NaN             NaN             NaN
             NaN             NaN             NaN
             NaN             NaN             NaN
             NaN             NaN             NaN
             NaN             NaN             NaN
             NaN             NaN             NaN
             NaN             NaN             NaN
