Ca4 V4 P6 O24                           
   1.00000000000000     
     2.5655090000000000    7.2600860000000003    4.3598319999999999
    -0.0051910000000000    0.0430770000000000    8.7823519999999995
     7.6655810000000004    0.0448240000000000    4.2829730000000001
   Ca   V    P    O 
     4     4     6    24
Direct
  0.3283345381717591  0.7080463699002193  0.5454990088052170
  0.9609703772867741  0.0072649236810543  0.0149848077886529
  0.3999997105935184  0.7427804509288098  0.0891109365459350
  0.1117755675909286  0.3795034641836830  0.7498132672510862
  0.6606357487916693  0.6244614116541150  0.6446378334749947
  0.1521093440333644  0.1414501245213373  0.1544161078001336
  0.8447329719012312  0.8666598488043238  0.8481713306619837
  0.3481019173981589  0.3473513776766662  0.3500923796918867
  0.2429178872092813  0.5516714685549158  0.9573255519003772
  0.0367655598508736  0.7531334752029669  0.4458882184472756
  0.9523023358162421  0.2518206052647712  0.5521460691725223
  0.4624023128699927  0.0368883058683321  0.7475304549274545
  0.5417810959603380  0.9516531420771653  0.2468512319704882
  0.7553526276605296  0.4476744308827371  0.0363000913156433
  0.5554741332749843  0.8100202578056644  0.4355023901196196
  0.2655037765715073  0.0677596810403559  0.9085508535295181
  0.4242591045900898  0.5564105195462021  0.7908423991017868
  0.9206554353373002  0.2719848293227821  0.0748856030597626
  0.7745261089233851  0.4190673681400119  0.5501572530096187
  0.0775109000891512  0.9008305790541205  0.2555002393498172
  0.9202410604975576  0.0967809104865995  0.7403875067264165
  0.5742691709977139  0.4361553910673864  0.1939384720817843
  0.7299286416162413  0.9111694408674299  0.0975541116189986
  0.2275052763683252  0.5865501633641139  0.4361072555514490
  0.0962223395933381  0.7416886715163431  0.9005164564536189
  0.4283491775311962  0.2037001625523047  0.5803387784664353
  0.1948269424135063  0.3966142157934645  0.9773358795822100
  0.8822933183361320  0.7016461564661852  0.4837490587440346
  0.0213822454222928  0.1804339957846584  0.3963945933272218
  0.5053253999464337  0.8437544835662544  0.7501218954286563
  0.3949406311875775  0.9195205339701049  0.2257245222463292
  0.7682704337042077  0.4501903497975224  0.8530813071106251
  0.2599984083614778  0.5395976047027929  0.1277189386810053
  0.0128286172874038  0.7991414888105975  0.6050950228659774
  0.1039771588788437  0.3044521923158142  0.5376564204009546
  0.6025607052999422  0.0272567886444992  0.8045753695935193
  0.4742497716587736  0.1470660490965643  0.2418902343513087
  0.7708821352235884  0.6284873337829586 -0.0006572672263320
 
             NaN             NaN             NaN
             NaN             NaN             NaN
             NaN             NaN             NaN
             NaN             NaN             NaN
             NaN             NaN             NaN
             NaN             NaN             NaN
             NaN             NaN             NaN
             NaN             NaN             NaN
             NaN             NaN             NaN
             NaN             NaN             NaN
             NaN             NaN             NaN
             NaN             NaN             NaN
             NaN             NaN             NaN
             NaN             NaN             NaN
             NaN             NaN             NaN
             NaN             NaN             NaN
             NaN             NaN             NaN
             NaN             NaN             NaN
             NaN             NaN             NaN
             NaN             NaN             NaN
             NaN             NaN             NaN
             NaN             NaN             NaN
             NaN             NaN             NaN
             NaN             NaN             NaN
             NaN             NaN             NaN
             NaN             NaN             NaN
             NaN             NaN             NaN
             NaN             NaN             NaN
             NaN             NaN             NaN
             NaN             NaN             NaN
             NaN             NaN             NaN
             NaN             NaN             NaN
             NaN             NaN             NaN
             NaN             NaN             NaN
             NaN             NaN             NaN
             NaN             NaN             NaN
             NaN             NaN             NaN
             NaN             NaN             NaN
