Mn2 S2 O8                               
   1.00000000000000     
    -2.6269814199487445   -4.0231269141606090    0.0000000650339904
    -2.6269814263813998    4.0231269112835690   -0.0000000614076659
    -0.0000000086977252    0.0000001126585796   -6.8061277806548066
   Mn   S    O 
     2     2     8
Direct
  0.9999951922458905  0.9999951908345253  0.4999999997466205
  0.9999951971451111  0.9999951982860722  0.9999999995610978
  0.6455562364527836  0.3544539238730522  0.7500000202849790
  0.3544539227544732  0.6455562355869660  0.2499999800026202
  0.7445863471810767  0.2554237627790386  0.5715360436352270
  0.2554237538585014  0.7445863374784736  0.4284639566711022
  0.7445863278273634  0.2554237628590670  0.9284639383671589
  0.2554237720491130  0.7445863379230317  0.0715360618966301
  0.7676608910076013  0.6935136996770197  0.7500000031098750
  0.6935137006705290  0.7676608913938807  0.2500000059346803
  0.2323189938432790  0.3064856657614285  0.2499999971111180
  0.3064856649642849  0.2323189935474588  0.7499999936788910
 
  0.00000000E+00  0.00000000E+00  0.00000000E+00
  0.00000000E+00  0.00000000E+00  0.00000000E+00
  0.00000000E+00  0.00000000E+00  0.00000000E+00
  0.00000000E+00  0.00000000E+00  0.00000000E+00
  0.00000000E+00  0.00000000E+00  0.00000000E+00
  0.00000000E+00  0.00000000E+00  0.00000000E+00
  0.00000000E+00  0.00000000E+00  0.00000000E+00
  0.00000000E+00  0.00000000E+00  0.00000000E+00
  0.00000000E+00  0.00000000E+00  0.00000000E+00
  0.00000000E+00  0.00000000E+00  0.00000000E+00
  0.00000000E+00  0.00000000E+00  0.00000000E+00
  0.00000000E+00  0.00000000E+00  0.00000000E+00
