Mn4 P12 O36                             
   1.00000000000000     
     9.7228294040408851   -0.0000000080380880   -0.0000001124485052
    -0.0000000067795409   10.7181053282980496   -0.0000000811475735
    -0.0000000750587173   -0.0000000455213626    6.3646940293194367
   Mn   P    O 
     4    12    36
Direct
  0.4999929710305153  0.4999940401044540  0.0000363934615351
  0.4999929708250619  0.0000059599112632  0.4999636050853340
  0.9999929685125224  0.4999940387949877  0.4999636036264192
  0.9999929687503695  0.0000059605595482  0.0000363955405405
  0.0835474834601300  0.7500000007523084  0.7500000092673389
  0.4164384045736469  0.2500000014745041  0.2499999894974252
  0.9164384059763293  0.2499999981484535  0.2499999910285808
  0.5835474873026598  0.7499999995070752  0.7500000096074544
  0.7138336761312516  0.8651709572118449  0.1336335048415194
  0.7138336771584548  0.6348290490585526  0.3663665232463487
  0.7861677121712773  0.1348244455427334  0.6336529767106995
  0.7861677128143612  0.3651755574776274  0.8663469918242868
  0.2861677046239564  0.1348244422554359  0.8663469834432078
  0.2861677038749875  0.3651755534055781  0.6336529888027442
  0.2138336713398985  0.8651709518708941  0.3663665316314919
  0.2138336701500876  0.6348290453233290  0.1336334990918502
  0.5039968794489766  0.3466205240794409  0.1494044775575958
  0.5039968753726214  0.1533794768029750  0.3505955209294100
  0.9960020352061463  0.6533810470580477  0.6493950411247340
  0.9960020286337254  0.8466189559931152  0.8506049652156662
  0.4960020262569174  0.6533810385528724  0.8506049458388034
  0.4960020317317060  0.8466189596226386  0.6493950557797348
  0.0039968746537795  0.3466205174108765  0.3505955348538592
  0.0039968804675183  0.1533794801291890  0.1494044592308583
  0.5835050318237833  0.5996701081855420  0.2651075931371096
  0.5835050334726546  0.9003298963825017  0.2348924197913718
  0.9164999706606736  0.4003263731348312  0.7650805694034588
  0.9164999724370233  0.0996736314407300  0.7349194174062603
  0.4164999727481415  0.4003263682084821  0.7349194338064891
  0.4164999729108061  0.0996736271593264  0.7650805524993416
  0.0835050346225472  0.5996701016358585  0.2348924026356372
  0.0835050341557135  0.9003298929083243  0.2651076108620956
  0.8191501594176458  0.5344863107320208  0.3893201616768991
  0.8191501612443091  0.9655136895369694  0.1106798432594474
  0.6808552197503843  0.4655154858321495  0.8893126698100957
  0.6808552233951701  0.0344845137411056  0.6106873233595493
  0.1808552199970990  0.4655154840765761  0.6106873437979488
  0.1808552190734147  0.0344845165161800  0.8893126502877848
  0.3191501609080447  0.5344863087775735  0.1106798237983355
  0.3191501581255025  0.9655136908033199  0.3893201840792031
  0.8108169097857498  0.1911360783024065  0.4064438154743470
  0.8108169155698093  0.3088639141013161  0.0935561434139345
  0.6891874994499361  0.8088625694763465  0.9064354599413633
  0.6891875041226854  0.6911374223493922  0.5935645778465499
  0.1891875082224956  0.8088625817267712  0.5935645912636573
  0.1891875014860886  0.6911374256301599  0.9064354520250930
  0.3108169180683618  0.1911360900248624  0.0935561369281572
  0.3108169114746602  0.3088639183898962  0.4064438258622900
  0.7851761703534521  0.7500000040537387  0.2500000255208903
  0.7148218145419136  0.2500000045968065  0.7499999722129473
  0.2148218133999507  0.2499999963525994  0.7499999744410317
  0.2851761683150897  0.7499999948764682  0.2500000282213009
 
  0.00000000E+00  0.00000000E+00  0.00000000E+00
  0.00000000E+00  0.00000000E+00  0.00000000E+00
  0.00000000E+00  0.00000000E+00  0.00000000E+00
  0.00000000E+00  0.00000000E+00  0.00000000E+00
  0.00000000E+00  0.00000000E+00  0.00000000E+00
  0.00000000E+00  0.00000000E+00  0.00000000E+00
  0.00000000E+00  0.00000000E+00  0.00000000E+00
  0.00000000E+00  0.00000000E+00  0.00000000E+00
  0.00000000E+00  0.00000000E+00  0.00000000E+00
  0.00000000E+00  0.00000000E+00  0.00000000E+00
  0.00000000E+00  0.00000000E+00  0.00000000E+00
  0.00000000E+00  0.00000000E+00  0.00000000E+00
  0.00000000E+00  0.00000000E+00  0.00000000E+00
  0.00000000E+00  0.00000000E+00  0.00000000E+00
  0.00000000E+00  0.00000000E+00  0.00000000E+00
  0.00000000E+00  0.00000000E+00  0.00000000E+00
  0.00000000E+00  0.00000000E+00  0.00000000E+00
  0.00000000E+00  0.00000000E+00  0.00000000E+00
  0.00000000E+00  0.00000000E+00  0.00000000E+00
  0.00000000E+00  0.00000000E+00  0.00000000E+00
  0.00000000E+00  0.00000000E+00  0.00000000E+00
  0.00000000E+00  0.00000000E+00  0.00000000E+00
  0.00000000E+00  0.00000000E+00  0.00000000E+00
  0.00000000E+00  0.00000000E+00  0.00000000E+00
  0.00000000E+00  0.00000000E+00  0.00000000E+00
  0.00000000E+00  0.00000000E+00  0.00000000E+00
  0.00000000E+00  0.00000000E+00  0.00000000E+00
  0.00000000E+00  0.00000000E+00  0.00000000E+00
  0.00000000E+00  0.00000000E+00  0.00000000E+00
  0.00000000E+00  0.00000000E+00  0.00000000E+00
  0.00000000E+00  0.00000000E+00  0.00000000E+00
  0.00000000E+00  0.00000000E+00  0.00000000E+00
  0.00000000E+00  0.00000000E+00  0.00000000E+00
  0.00000000E+00  0.00000000E+00  0.00000000E+00
  0.00000000E+00  0.00000000E+00  0.00000000E+00
  0.00000000E+00  0.00000000E+00  0.00000000E+00
  0.00000000E+00  0.00000000E+00  0.00000000E+00
  0.00000000E+00  0.00000000E+00  0.00000000E+00
  0.00000000E+00  0.00000000E+00  0.00000000E+00
  0.00000000E+00  0.00000000E+00  0.00000000E+00
  0.00000000E+00  0.00000000E+00  0.00000000E+00
  0.00000000E+00  0.00000000E+00  0.00000000E+00
  0.00000000E+00  0.00000000E+00  0.00000000E+00
  0.00000000E+00  0.00000000E+00  0.00000000E+00
  0.00000000E+00  0.00000000E+00  0.00000000E+00
  0.00000000E+00  0.00000000E+00  0.00000000E+00
  0.00000000E+00  0.00000000E+00  0.00000000E+00
  0.00000000E+00  0.00000000E+00  0.00000000E+00
  0.00000000E+00  0.00000000E+00  0.00000000E+00
  0.00000000E+00  0.00000000E+00  0.00000000E+00
  0.00000000E+00  0.00000000E+00  0.00000000E+00
  0.00000000E+00  0.00000000E+00  0.00000000E+00
