Mn4 P12 O36
1.0
9.703000 0.000000 0.000000
0.000000 10.667000 0.000000
0.000000 0.000000 6.362000
Mn P O
4 12 36
direct
0.500000 0.500000 0.000000 Mn3+
0.500000 0.000000 0.500000 Mn3+
0.000000 0.500000 0.500000 Mn3+
0.000000 0.000000 0.000000 Mn3+
0.083600 0.750000 0.750000 P5+
0.416400 0.250000 0.250000 P5+
0.916400 0.250000 0.250000 P5+
0.583600 0.750000 0.750000 P5+
0.714100 0.865000 0.132900 P5+
0.714100 0.635000 0.367100 P5+
0.785900 0.135000 0.632900 P5+
0.785900 0.365000 0.867100 P5+
0.285900 0.135000 0.867100 P5+
0.285900 0.365000 0.632900 P5+
0.214100 0.865000 0.367100 P5+
0.214100 0.635000 0.132900 P5+
0.503400 0.347500 0.148300 O2-
0.503400 0.152500 0.351700 O2-
0.996600 0.652500 0.648300 O2-
0.996600 0.847500 0.851700 O2-
0.496600 0.652500 0.851700 O2-
0.496600 0.847500 0.648300 O2-
0.003400 0.347500 0.351700 O2-
0.003400 0.152500 0.148300 O2-
0.583700 0.599300 0.267000 O2-
0.583700 0.900700 0.233000 O2-
0.916300 0.400700 0.767000 O2-
0.916300 0.099300 0.733000 O2-
0.416300 0.400700 0.733000 O2-
0.416300 0.099300 0.767000 O2-
0.083700 0.599300 0.233000 O2-
0.083700 0.900700 0.267000 O2-
0.820400 0.534500 0.390400 O2-
0.820400 0.965500 0.109600 O2-
0.679600 0.465500 0.890400 O2-
0.679600 0.034500 0.609600 O2-
0.179600 0.465500 0.609600 O2-
0.179600 0.034500 0.890400 O2-
0.320400 0.534500 0.109600 O2-
0.320400 0.965500 0.390400 O2-
0.810100 0.191200 0.406200 O2-
0.810100 0.308800 0.093800 O2-
0.689900 0.808800 0.906200 O2-
0.689900 0.691200 0.593800 O2-
0.189900 0.808800 0.593800 O2-
0.189900 0.691200 0.906200 O2-
0.310100 0.191200 0.093800 O2-
0.310100 0.308800 0.406200 O2-
0.785200 0.750000 0.250000 O2-
0.714800 0.250000 0.750000 O2-
0.214800 0.250000 0.750000 O2-
0.285200 0.750000 0.250000 O2-
