Manganese-delta                         
   1.00000000000000     
     3.3078783338398572    0.0000000028788538    0.0000000021046935
     0.0000000020665992    3.3078791624987121   -0.0000000111181940
     0.0000000028202450   -0.0000000118374849    3.3078699823167801
   Mn
     2
Direct
 -0.0000000001217634 -0.0000000006090425 -0.0000000000715949
  0.5000000001217634  0.5000000006090425  0.5000000000715950
 
  0.00000000E+00  0.00000000E+00  0.00000000E+00
  0.00000000E+00  0.00000000E+00  0.00000000E+00
