Ca1 Ti4 S6 O24                          
   1.00000000000000     
     7.6468929842243609    0.2948409733013427    4.8340211183092130
     2.8038393723402364    7.1784894919940712    4.8400202450495753
     0.4213633208008101    0.3284764715054728    9.0420900548938423
   Ca   Ti   S    O 
     1     4     6    24
Direct
  0.9962654971372942  0.0287693691684652  0.9680958720123343
  0.6481036206277579  0.6392576481585408  0.6509997366233051
  0.1532144916680664  0.1424180272119955  0.1412464510569791
  0.8483304248126728  0.8511746948997327  0.8498421709985280
  0.3434373257204939  0.3465469217364259  0.3563542263970163
  0.9594854032263527  0.2467809792303441  0.5482301846530220
  0.4552304260470734  0.0297089618602442  0.7476861862297994
  0.5407358828812150  0.9624737775388752  0.2472430049510876
  0.7531294908752812  0.4440172810513658  0.0315797254836383
  0.2377600385170382  0.5471639338174441  0.9672978401636740
  0.0373562877973157  0.7511548527002176  0.4476174804688497
  0.4386050512463058  0.5258534740522052  0.8344617632947262
  0.8831074548839126  0.2500227197176983  0.1187348403957316
  0.8238075418675095  0.4449277433460992  0.5121196612654302
  0.1027565682883704  0.8848294896382498  0.2454629653826359
  0.5158897860138083  0.8304103342806428  0.4465241909313491
  0.2552651538222293  0.1163277574158670  0.8709384478383342
  0.7427143157159080  0.8949995912138533  0.1158978339997532
  0.1818234261103342  0.5566217583823132  0.4661222264618488
  0.1086558923564951  0.7470356907765634  0.8886398477240292
  0.4890244543466764  0.1568239180174800  0.5443698344459804
  0.8675443541704908  0.1206366560141774  0.7440924319544067
  0.5536774140348371  0.4722197110697408  0.1634653347007387
  0.0171866805710863  0.1858113216473782  0.4013152957756532
  0.4701075197719859  0.8439262747414560  0.7823432681275548
  0.4105161613896016  0.9786992897524271  0.1883010430107248
  0.7853467900529552  0.4383727808966853  0.8539034167579516
  0.1898442533743250  0.4098519938686280  0.9835166475157635
  0.8529300573911343  0.7587868421313360  0.4827991684644317
  0.1292745728789839  0.2230484409498885  0.5609942187663250
  0.5920159333964463  0.0060114743135671  0.8031767563428431
  0.5046430198768590  0.1537355359096892  0.2238489296117265
  0.8063126089355848  0.5915781166643228  0.9868403184546253
  0.2071448875150423  0.5224723594039986  0.1564956935595134
  0.0111572126785546  0.8099302784221223  0.5818429861796943
 
  0.00000000E+00  0.00000000E+00  0.00000000E+00
  0.00000000E+00  0.00000000E+00  0.00000000E+00
  0.00000000E+00  0.00000000E+00  0.00000000E+00
  0.00000000E+00  0.00000000E+00  0.00000000E+00
  0.00000000E+00  0.00000000E+00  0.00000000E+00
  0.00000000E+00  0.00000000E+00  0.00000000E+00
  0.00000000E+00  0.00000000E+00  0.00000000E+00
  0.00000000E+00  0.00000000E+00  0.00000000E+00
  0.00000000E+00  0.00000000E+00  0.00000000E+00
  0.00000000E+00  0.00000000E+00  0.00000000E+00
  0.00000000E+00  0.00000000E+00  0.00000000E+00
  0.00000000E+00  0.00000000E+00  0.00000000E+00
  0.00000000E+00  0.00000000E+00  0.00000000E+00
  0.00000000E+00  0.00000000E+00  0.00000000E+00
  0.00000000E+00  0.00000000E+00  0.00000000E+00
  0.00000000E+00  0.00000000E+00  0.00000000E+00
  0.00000000E+00  0.00000000E+00  0.00000000E+00
  0.00000000E+00  0.00000000E+00  0.00000000E+00
  0.00000000E+00  0.00000000E+00  0.00000000E+00
  0.00000000E+00  0.00000000E+00  0.00000000E+00
  0.00000000E+00  0.00000000E+00  0.00000000E+00
  0.00000000E+00  0.00000000E+00  0.00000000E+00
  0.00000000E+00  0.00000000E+00  0.00000000E+00
  0.00000000E+00  0.00000000E+00  0.00000000E+00
  0.00000000E+00  0.00000000E+00  0.00000000E+00
  0.00000000E+00  0.00000000E+00  0.00000000E+00
  0.00000000E+00  0.00000000E+00  0.00000000E+00
  0.00000000E+00  0.00000000E+00  0.00000000E+00
  0.00000000E+00  0.00000000E+00  0.00000000E+00
  0.00000000E+00  0.00000000E+00  0.00000000E+00
  0.00000000E+00  0.00000000E+00  0.00000000E+00
  0.00000000E+00  0.00000000E+00  0.00000000E+00
  0.00000000E+00  0.00000000E+00  0.00000000E+00
  0.00000000E+00  0.00000000E+00  0.00000000E+00
  0.00000000E+00  0.00000000E+00  0.00000000E+00
