Ca2 Fe4 S6 O24                          
   1.00000000000000     
     7.7283665563324160    0.0270133612808646    4.5402120752291930
     2.6074241779549148    7.3191222479496520    4.4603002299267986
     0.1637610749512031    0.0282807789162795    8.9610534298516153
   Ca   Fe   S    O 
     2     4     6    24
Direct
  0.3828467176028411  0.7471414465665999  0.1137227583447665
  0.6135351547880714  0.2472526925798401  0.8827563873376557
  0.6519487810330675  0.6522632135974304  0.6372030134226609
  0.1371498802250523  0.1522208489508701  0.1520582133065823
  0.8585652964208071  0.8424084930608385  0.8440163740003847
  0.3439927201686456  0.3423684898600033  0.3585862350219794
  0.9521177698753434  0.2472431711615646  0.5433437086511473
  0.4577428820843377  0.0448391645594251  0.7533688370813963
  0.5380771283657325  0.9500545181053661  0.2426328612259721
  0.7426814283285570  0.4499267231755602  0.0381152329636187
  0.2533303550584546  0.5450039801206233  0.9576467128432532
  0.0434014857366029  0.7471532846058410  0.4521960621213048
  0.4161478256909116  0.5719719638853519  0.7850216117601767
  0.9141348709406275  0.3171476143800466  0.0604205731585506
  0.7747464042066545  0.4006161460679804  0.5700519008542143
  0.0702231398838944  0.9005256577632279  0.2747789067532443
  0.5603431657756914  0.8174138714264146  0.4141657419478667
  0.2851498852670876  0.0719253607801765  0.9161589223234784
  0.7106771128136367  0.9227120601400804  0.0798957829369208
  0.2209293032896888  0.5938175107534494  0.4261098955585942
  0.0819291010118724  0.6777477757861883  0.9351043774669138
  0.4352524565897168  0.1773980728194618  0.5818705040775946
  0.9259622667544909  0.0939673189130730  0.7209420549535234
  0.5799371224675577  0.4226012081706325  0.2107326786851755
  0.9890622802410893  0.1955611335063376  0.3945443510283005
  0.5067061868435073  0.8546072696199448  0.7677569932389503
  0.3909836492211023  0.9418736248285392  0.2180461696806610
  0.7180482262472951  0.4418575438842757  0.8909705657215828
  0.2675047812483461  0.3548449713157057  0.0066082653809595
  0.8945573094210246  0.6955653999997479  0.4891288550923405
  0.1016661756130008  0.2987554766274202  0.5048319657323901
  0.6046182296449467  0.0535227719424141  0.7778539484499943
  0.4895782113682693  0.1402228911409919  0.2281104788807129
  0.7282861811687511  0.6400363665531774  0.9896855718101828
  0.2779291384326343  0.5535762367291908  0.1045210882958073
  0.0049373761707126  0.7986557266222311  0.6017423998911651
 
  0.00000000E+00  0.00000000E+00  0.00000000E+00
  0.00000000E+00  0.00000000E+00  0.00000000E+00
  0.00000000E+00  0.00000000E+00  0.00000000E+00
  0.00000000E+00  0.00000000E+00  0.00000000E+00
  0.00000000E+00  0.00000000E+00  0.00000000E+00
  0.00000000E+00  0.00000000E+00  0.00000000E+00
  0.00000000E+00  0.00000000E+00  0.00000000E+00
  0.00000000E+00  0.00000000E+00  0.00000000E+00
  0.00000000E+00  0.00000000E+00  0.00000000E+00
  0.00000000E+00  0.00000000E+00  0.00000000E+00
  0.00000000E+00  0.00000000E+00  0.00000000E+00
  0.00000000E+00  0.00000000E+00  0.00000000E+00
  0.00000000E+00  0.00000000E+00  0.00000000E+00
  0.00000000E+00  0.00000000E+00  0.00000000E+00
  0.00000000E+00  0.00000000E+00  0.00000000E+00
  0.00000000E+00  0.00000000E+00  0.00000000E+00
  0.00000000E+00  0.00000000E+00  0.00000000E+00
  0.00000000E+00  0.00000000E+00  0.00000000E+00
  0.00000000E+00  0.00000000E+00  0.00000000E+00
  0.00000000E+00  0.00000000E+00  0.00000000E+00
  0.00000000E+00  0.00000000E+00  0.00000000E+00
  0.00000000E+00  0.00000000E+00  0.00000000E+00
  0.00000000E+00  0.00000000E+00  0.00000000E+00
  0.00000000E+00  0.00000000E+00  0.00000000E+00
  0.00000000E+00  0.00000000E+00  0.00000000E+00
  0.00000000E+00  0.00000000E+00  0.00000000E+00
  0.00000000E+00  0.00000000E+00  0.00000000E+00
  0.00000000E+00  0.00000000E+00  0.00000000E+00
  0.00000000E+00  0.00000000E+00  0.00000000E+00
  0.00000000E+00  0.00000000E+00  0.00000000E+00
  0.00000000E+00  0.00000000E+00  0.00000000E+00
  0.00000000E+00  0.00000000E+00  0.00000000E+00
  0.00000000E+00  0.00000000E+00  0.00000000E+00
  0.00000000E+00  0.00000000E+00  0.00000000E+00
  0.00000000E+00  0.00000000E+00  0.00000000E+00
  0.00000000E+00  0.00000000E+00  0.00000000E+00
