Ca2 Ni2 P4 O14                          
   1.00000000000000     
     6.3900570828580285   -0.0051591630543877    0.0183938544891689
     0.2546041860587661    6.5038194665437681    0.0085253223176064
     0.8032617568381477    2.5713375895776855    5.9179577995463735
   Ca   Ni   P    O 
     2     2     4    14
Direct
  0.1311605751304265  0.8075365324186907  0.7363080113628466
  0.8688051474886660  0.1924484082040973  0.2636774936915688
  0.3537218655393283  0.2206839502239316  0.8976513821970784
  0.6463104052245743  0.7792209459230980  0.1023870531259759
  0.6258054245310429  0.6736016234754675  0.6390648323704945
  0.3742123471045928  0.3263956154131908  0.3609254092650284
  0.1400446625590471  0.7467948494140795  0.2322003344997890
  0.8599296743399777  0.2532115908105706  0.7677926155936567
  0.0630156873636839  0.8637306955845958  0.3822259035721824
  0.9369302530464377  0.1362519864636908  0.6177868781109239
  0.3258075418323984  0.8653230701519061  0.0511641514898064
  0.6741950987111360  0.1347977641180503  0.9488658067832143
  0.7266111075883240  0.7467771632594058  0.7964436307697867
  0.2734030811935911  0.2531718545086853  0.2035812446232161
  0.3768940630743109  0.1527657258908715  0.6011150280865956
  0.6231533975456433  0.8472372168106627  0.3988862274508007
  0.5882876294378930  0.4399610676429338  0.2561394713164871
  0.4117031754782280  0.5601622033067439  0.7437879737507229
  0.9678741112972437  0.7037154958148123  0.1115037997477222
  0.0321353438843765  0.2962123042821642  0.8884940217739636
  0.7770787072972124  0.4839624741545143  0.6045600476677562
  0.2229207003318723  0.5160374621278302  0.3954386827503969
 
  0.00000000E+00  0.00000000E+00  0.00000000E+00
  0.00000000E+00  0.00000000E+00  0.00000000E+00
  0.00000000E+00  0.00000000E+00  0.00000000E+00
  0.00000000E+00  0.00000000E+00  0.00000000E+00
  0.00000000E+00  0.00000000E+00  0.00000000E+00
  0.00000000E+00  0.00000000E+00  0.00000000E+00
  0.00000000E+00  0.00000000E+00  0.00000000E+00
  0.00000000E+00  0.00000000E+00  0.00000000E+00
  0.00000000E+00  0.00000000E+00  0.00000000E+00
  0.00000000E+00  0.00000000E+00  0.00000000E+00
  0.00000000E+00  0.00000000E+00  0.00000000E+00
  0.00000000E+00  0.00000000E+00  0.00000000E+00
  0.00000000E+00  0.00000000E+00  0.00000000E+00
  0.00000000E+00  0.00000000E+00  0.00000000E+00
  0.00000000E+00  0.00000000E+00  0.00000000E+00
  0.00000000E+00  0.00000000E+00  0.00000000E+00
  0.00000000E+00  0.00000000E+00  0.00000000E+00
  0.00000000E+00  0.00000000E+00  0.00000000E+00
  0.00000000E+00  0.00000000E+00  0.00000000E+00
  0.00000000E+00  0.00000000E+00  0.00000000E+00
  0.00000000E+00  0.00000000E+00  0.00000000E+00
  0.00000000E+00  0.00000000E+00  0.00000000E+00
