Ca1 V4 S6 O24
1.0
7.450952 -0.069421 4.916658
2.383890 6.684702 5.361259
0.017541 -0.592963 8.921931
Ca V S O
1 4 6 24
direct
0.346300 0.730365 0.572142 Ca
0.651460 0.644542 0.649284 V
0.139669 0.144765 0.143603 V
0.846180 0.845419 0.848793 V
0.356455 0.352223 0.345214 V
0.957084 0.250033 0.528222 S
0.450267 0.039244 0.747048 S
0.540219 0.964106 0.241067 S
0.746970 0.451342 0.043516 S
0.245902 0.536013 0.957418 S
0.044401 0.745709 0.461763 S
0.399449 0.583536 0.772199 O
0.909645 0.284865 0.067124 O
0.798263 0.412246 0.569909 O
0.072327 0.907758 0.295565 O
0.585487 0.790452 0.402339 O
0.291117 0.066304 0.914450 O
0.687348 0.940073 0.066462 O
0.200489 0.576305 0.436966 O
0.071147 0.699471 0.943052 O
0.422969 0.208031 0.583177 O
0.941917 0.074032 0.689340 O
0.583365 0.432821 0.215898 O
0.962875 0.247101 0.363709 O
0.462440 0.881068 0.724652 O
0.353335 0.985421 0.262596 O
0.712513 0.476590 0.888683 O
0.236025 0.367159 0.981098 O
0.871078 0.739502 0.503063 O
0.132503 0.254435 0.493869 O
0.621721 0.003397 0.758729 O
0.526578 0.125476 0.252751 O
0.775262 0.613445 0.008345 O
0.279065 0.510560 0.111789 O
0.039098 0.758624 0.622493 O
