Ni4 P12
1.0
3.907850 3.907850 3.907850
3.907850 -3.907850 -3.907850
-3.907850 3.907850 -3.907850
Ni P
4 12
direct
0.000000 0.500000 0.000000 Ni0+
0.500000 0.500000 0.500000 Ni0+
0.000000 1.000000 0.500000 Ni0+
0.500000 0.000000 0.000000 Ni0+
0.857660 0.502350 0.644690 P0+
0.142340 0.497650 0.355310 P0+
0.142340 0.787030 0.644690 P0+
0.857660 0.212970 0.355310 P0+
0.212970 0.355310 0.857660 P0+
0.787030 0.644690 0.142340 P0+
0.497650 0.355310 0.142340 P0+
0.502350 0.644690 0.857660 P0+
0.355310 0.142340 0.497650 P0+
0.644690 0.857660 0.502350 P0+
0.355310 0.857660 0.212970 P0+
0.644690 0.142340 0.787030 P0+
