Ca8 V4 P12 O44                          
   1.00000000000000     
     6.3200468627242676   -0.0000000000169072   -1.0230647885545940
    -0.0000000027238600    6.6100701203513648   -0.0000000606126770
     0.0116361812964554   -0.0000001984318763   19.0475438467986358
   Ca   V    P    O 
     8     4    12    44
Direct
  0.6684867374170622  0.8546308387368526  0.5777880743899431
  0.3314990901916275  0.3546540760449446  0.9222052819545041
  0.3314991018702784  0.1453459286331480  0.4222052834679815
  0.6684867476706557  0.6453691617408808  0.0777880724353395
  0.6694034639126940  0.5113524182762745  0.7725415953147277
  0.3306029633314864  0.0113455506894269  0.7274644550905620
  0.3306029506171768  0.4886544392178678  0.2274644528316827
  0.6694034544186422  0.9886475816514420  0.2725415910473714
  0.9475033921848066  0.3561345444607227  0.6221074437502807
  0.0524738095783093  0.8561631153630103  0.8778893016702085
  0.0524738203587773  0.6438369081009796  0.3778893150483782
  0.9475034003858056  0.1438654340611123  0.1221074542939178
  0.4298248978400849  0.3449939363738181  0.5886138064963262
  0.5701835313305423  0.8450256330701720  0.9113850047729457
  0.5701835292473163  0.6549743786438924  0.4113850064264000
  0.4298249052530494  0.1550060659370871  0.0886137982103321
  0.1717822054198166  0.7064138316698063  0.5488079567910944
  0.8282081298539055  0.2064046597956093  0.9511950717568070
  0.8282081383092788  0.2935953372462450  0.4511950685733837
  0.1717821757898434  0.7935861875310124  0.0488079279440257
  0.1843581037166544  0.5103395605696761  0.7734353012052466
  0.8156230190091733  0.0103580370305920  0.7265678428761220
  0.8156230154531414  0.4896419621252406  0.2265678505278430
  0.1843580964111311  0.9896604345082096  0.2734353091907167
  0.9811626201640777  0.6293970271405485  0.5815351457315643
  0.0188304237517727  0.1293366961416567  0.9184691488362375
  0.0188304406485358  0.3706633269581374  0.4184691538198848
  0.9811626384848893  0.8706029576700942  0.0815351492030416
  0.2759071592898295  0.2943768596691356  0.6394535324458914
  0.7241371143385393  0.7944453417608841  0.8605480867558768
  0.7241371348873002  0.7055546717562748  0.3605480871032256
  0.2759071758296443  0.2056231329652860  0.1394535331413564
  0.3096104602934133  0.8429784590245148  0.5982510788435320
  0.6904083639269842  0.3429704493286465  0.9017440784364581
  0.6904083699123476  0.1570295474227876  0.4017440525225524
  0.3096104831454056  0.6570215140041569  0.0982510577513267
  0.6327471663324644  0.4444109332106194  0.6253048301593935
  0.3672827535500858  0.9444578356840125  0.8746912292248865
  0.3672827542921766  0.5555421727902043  0.3746912152258943
  0.6327471762056760  0.0555890530492675  0.1253048212399506
  0.4730394922735996  0.1730147341588903  0.5415044549147439
  0.5269715209424746  0.6730213372519529  0.9584828399262904
  0.5269715147435790  0.8269786580956762  0.4584828323937700
  0.4730394866174521  0.3269852652688385  0.0415044516776035
  0.9064538313288892  0.2171884814133733  0.5258968583990651
  0.0935546271213923  0.7171996308369160  0.9740999386364990
  0.0935546444185889  0.7828004027847015  0.4740999485001112
  0.9064538430566103  0.2828114966721174  0.0258968788932492
  0.3097792116353943  0.5106828455602468  0.5351719025221158
  0.6902136937578476  0.0106942016059222  0.9648397547525533
  0.6902136746773166  0.4893057843519273  0.4648397453291579
  0.3097791998796566  0.9893171700823089  0.0351718946596122
  0.9857393749945302  0.4644713449069400  0.7188529039371829
  0.0142534253070750  0.9644792553892927  0.7811458711019270
  0.0142534173076498  0.5355207665473074  0.2811458782363303
  0.9857393725091868  0.0355286328044997  0.2188529099650793
  0.3257888210073361  0.6677210452209081  0.7483831227277520
  0.6741966057991249  0.1677250865197024  0.7516259915366774
  0.6741966081919841  0.3322749322462286  0.2516260100863263
  0.3257888189104960  0.8322789297320909  0.2483831373082381
  0.9079866773330494  0.0794838783870730  0.6591800461672435
  0.0919806185324603  0.5794247427931793  0.8408220980700136
  0.0919806213675685  0.9205752780239322  0.3408221070286217
  0.9079866834920409  0.4205161031629387  0.1591800587678307
  0.3146233339312445  0.3226117475284482  0.7962323881920099
  0.6853833185404383  0.8226253706930464  0.7037635691364983
  0.6853833111366257  0.6773746255184037  0.2037635628895842
  0.3146233365620077  0.1773882523889014  0.2962323777367146
 
  0.00000000E+00  0.00000000E+00  0.00000000E+00
  0.00000000E+00  0.00000000E+00  0.00000000E+00
  0.00000000E+00  0.00000000E+00  0.00000000E+00
  0.00000000E+00  0.00000000E+00  0.00000000E+00
  0.00000000E+00  0.00000000E+00  0.00000000E+00
  0.00000000E+00  0.00000000E+00  0.00000000E+00
  0.00000000E+00  0.00000000E+00  0.00000000E+00
  0.00000000E+00  0.00000000E+00  0.00000000E+00
  0.00000000E+00  0.00000000E+00  0.00000000E+00
  0.00000000E+00  0.00000000E+00  0.00000000E+00
  0.00000000E+00  0.00000000E+00  0.00000000E+00
  0.00000000E+00  0.00000000E+00  0.00000000E+00
  0.00000000E+00  0.00000000E+00  0.00000000E+00
  0.00000000E+00  0.00000000E+00  0.00000000E+00
  0.00000000E+00  0.00000000E+00  0.00000000E+00
  0.00000000E+00  0.00000000E+00  0.00000000E+00
  0.00000000E+00  0.00000000E+00  0.00000000E+00
  0.00000000E+00  0.00000000E+00  0.00000000E+00
  0.00000000E+00  0.00000000E+00  0.00000000E+00
  0.00000000E+00  0.00000000E+00  0.00000000E+00
  0.00000000E+00  0.00000000E+00  0.00000000E+00
  0.00000000E+00  0.00000000E+00  0.00000000E+00
  0.00000000E+00  0.00000000E+00  0.00000000E+00
  0.00000000E+00  0.00000000E+00  0.00000000E+00
  0.00000000E+00  0.00000000E+00  0.00000000E+00
  0.00000000E+00  0.00000000E+00  0.00000000E+00
  0.00000000E+00  0.00000000E+00  0.00000000E+00
  0.00000000E+00  0.00000000E+00  0.00000000E+00
  0.00000000E+00  0.00000000E+00  0.00000000E+00
  0.00000000E+00  0.00000000E+00  0.00000000E+00
  0.00000000E+00  0.00000000E+00  0.00000000E+00
  0.00000000E+00  0.00000000E+00  0.00000000E+00
  0.00000000E+00  0.00000000E+00  0.00000000E+00
  0.00000000E+00  0.00000000E+00  0.00000000E+00
  0.00000000E+00  0.00000000E+00  0.00000000E+00
  0.00000000E+00  0.00000000E+00  0.00000000E+00
  0.00000000E+00  0.00000000E+00  0.00000000E+00
  0.00000000E+00  0.00000000E+00  0.00000000E+00
  0.00000000E+00  0.00000000E+00  0.00000000E+00
  0.00000000E+00  0.00000000E+00  0.00000000E+00
  0.00000000E+00  0.00000000E+00  0.00000000E+00
  0.00000000E+00  0.00000000E+00  0.00000000E+00
  0.00000000E+00  0.00000000E+00  0.00000000E+00
  0.00000000E+00  0.00000000E+00  0.00000000E+00
  0.00000000E+00  0.00000000E+00  0.00000000E+00
  0.00000000E+00  0.00000000E+00  0.00000000E+00
  0.00000000E+00  0.00000000E+00  0.00000000E+00
  0.00000000E+00  0.00000000E+00  0.00000000E+00
  0.00000000E+00  0.00000000E+00  0.00000000E+00
  0.00000000E+00  0.00000000E+00  0.00000000E+00
  0.00000000E+00  0.00000000E+00  0.00000000E+00
  0.00000000E+00  0.00000000E+00  0.00000000E+00
  0.00000000E+00  0.00000000E+00  0.00000000E+00
  0.00000000E+00  0.00000000E+00  0.00000000E+00
  0.00000000E+00  0.00000000E+00  0.00000000E+00
  0.00000000E+00  0.00000000E+00  0.00000000E+00
  0.00000000E+00  0.00000000E+00  0.00000000E+00
  0.00000000E+00  0.00000000E+00  0.00000000E+00
  0.00000000E+00  0.00000000E+00  0.00000000E+00
  0.00000000E+00  0.00000000E+00  0.00000000E+00
  0.00000000E+00  0.00000000E+00  0.00000000E+00
  0.00000000E+00  0.00000000E+00  0.00000000E+00
  0.00000000E+00  0.00000000E+00  0.00000000E+00
  0.00000000E+00  0.00000000E+00  0.00000000E+00
  0.00000000E+00  0.00000000E+00  0.00000000E+00
  0.00000000E+00  0.00000000E+00  0.00000000E+00
  0.00000000E+00  0.00000000E+00  0.00000000E+00
  0.00000000E+00  0.00000000E+00  0.00000000E+00
