Ni8 P8                                  
   1.00000000000000     
     5.9538535959340031    0.0000156508763476    0.0000453843480539
     0.0000125940334665    4.7911191310166235   -0.0000079199334379
     0.0000517237844821   -0.0000111876389380    6.8074490330000259
   Ni   P 
     8     8
Direct
  0.6960959922820944  0.0134412754230247  0.1060117147795845
  0.1960949761642126  0.4865573116566670  0.8939895223338505
  0.3039079580600205  0.5134326724858888  0.3939965273687257
  0.8039044362583871  0.9865637638934843  0.6060075976561258
  0.3039080691972916  0.9865628986249264  0.8939992284305220
  0.8039027248933959  0.5134413109717794  0.1060102865507017
  0.6960894908197712  0.4865676419271373  0.6059997172819185
  0.1960986292293837  0.0134421746027850  0.3939864137260970
  0.5586613869982874  0.1781633946067843  0.3882130645563680
  0.0586580904828942  0.3218308547859204  0.6117852316319664
  0.4413383977612577  0.6781599784040184  0.1117915524803949
  0.9413387721549989  0.8218381408628953  0.8882097261981440
  0.4413393525250296  0.8218394012539764  0.6117909584628750
  0.9413403519593168  0.6781615057645373  0.3882104548567897
  0.5586621930729625  0.3218340569524002  0.8882105441349344
  0.0586591781406891  0.1781636177837815  0.1117874595510089
 
  0.00000000E+00  0.00000000E+00  0.00000000E+00
  0.00000000E+00  0.00000000E+00  0.00000000E+00
  0.00000000E+00  0.00000000E+00  0.00000000E+00
  0.00000000E+00  0.00000000E+00  0.00000000E+00
  0.00000000E+00  0.00000000E+00  0.00000000E+00
  0.00000000E+00  0.00000000E+00  0.00000000E+00
  0.00000000E+00  0.00000000E+00  0.00000000E+00
  0.00000000E+00  0.00000000E+00  0.00000000E+00
  0.00000000E+00  0.00000000E+00  0.00000000E+00
  0.00000000E+00  0.00000000E+00  0.00000000E+00
  0.00000000E+00  0.00000000E+00  0.00000000E+00
  0.00000000E+00  0.00000000E+00  0.00000000E+00
  0.00000000E+00  0.00000000E+00  0.00000000E+00
  0.00000000E+00  0.00000000E+00  0.00000000E+00
  0.00000000E+00  0.00000000E+00  0.00000000E+00
  0.00000000E+00  0.00000000E+00  0.00000000E+00
