Ni8 P8
1.0
6.050000 0.000000 0.000000
0.000000 4.881000 0.000000
0.000000 0.000000 6.890000
Ni P
8 8
direct
0.694400 0.011300 0.103900 Ni2+
0.194400 0.488700 0.896100 Ni2+
0.305600 0.511300 0.396100 Ni2+
0.805600 0.988700 0.603900 Ni2+
0.305600 0.988700 0.896100 Ni2+
0.805600 0.511300 0.103900 Ni2+
0.694400 0.488700 0.603900 Ni2+
0.194400 0.011300 0.396100 Ni2+
0.557100 0.176400 0.386200 P2-
0.057100 0.323600 0.613800 P2-
0.442900 0.676400 0.113800 P2-
0.942900 0.823600 0.886200 P2-
0.442900 0.823600 0.613800 P2-
0.942900 0.676400 0.386200 P2-
0.557100 0.323600 0.886200 P2-
0.057100 0.176400 0.113800 P2-
