Ti4 S4 O20                              
   1.00000000000000     
    -5.1442083844640116    0.0002060535861937    0.0753716893463855
    -2.5718370842693270   -6.8742558370670164    0.0377405177779147
     0.0411354709876125   -0.0000483277037861    9.4710794309457906
   Ti   S    O 
     4     4    20
Direct
  0.4142391947763713  0.1715709949682847  0.7500247973136211
  0.5857845105289101  0.8284271327047961  0.2499685630370081
  0.9999706862159456  0.4999876679571926  0.5000040603276688
  0.4999940312569962  0.5000057424577022  0.9999990353795383
  0.3551780756859628  0.7846934235117331  0.5690414974983256
  0.8601893338958746  0.7847016866890755  0.9309803414952995
  0.6448121240798201  0.2153094905425306  0.4309572122569065
  0.1398265329599866  0.2152985538980019  0.0690173111500840
  0.1616855137557565  0.6996861076564684  0.9136694675182468
  0.1387894690352311  0.6995802386038434  0.5864198278034465
  0.8383306457557040  0.3003250106449613  0.0863280994167184
  0.8612148533341468  0.3004118669696325  0.4135769576292461
  0.6577824605985612  0.1352859013409144  0.5747280154415648
  0.2070291646473663  0.1353324846223956  0.9252491601776498
  0.3422333300062235  0.8647127659321683  0.4252711687226380
  0.7929897898085727  0.8646671754075967  0.0747488028372558
  0.3079293383089450  0.9361876289073905  0.6730922517490825
  0.7560924175819324  0.9362687141960038  0.8269876222877031
  0.6920699968820898  0.0638184655604519  0.3269045985656902
  0.2439193833487252  0.0637284946932652  0.1730089959311059
  0.5343545609934992  0.3410858890746127  0.8422821019026756
  0.1246735712886888  0.3409462271942445  0.6576589581005479
  0.4655827828190340  0.6589573150437218  0.1577165071133777
  0.8753022323651933  0.6590063912374760  0.3423454878490375
  0.6277232316287922  0.6300584905429005  0.5918519223272511
  0.7423175200546837  0.6300707226200970  0.9080868982074577
  0.3722754121485821  0.3699480062215130  0.4081614354477523
  0.2577098362383978  0.3699274108010471  0.0919189025130933
 
  0.00000000E+00  0.00000000E+00  0.00000000E+00
  0.00000000E+00  0.00000000E+00  0.00000000E+00
  0.00000000E+00  0.00000000E+00  0.00000000E+00
  0.00000000E+00  0.00000000E+00  0.00000000E+00
  0.00000000E+00  0.00000000E+00  0.00000000E+00
  0.00000000E+00  0.00000000E+00  0.00000000E+00
  0.00000000E+00  0.00000000E+00  0.00000000E+00
  0.00000000E+00  0.00000000E+00  0.00000000E+00
  0.00000000E+00  0.00000000E+00  0.00000000E+00
  0.00000000E+00  0.00000000E+00  0.00000000E+00
  0.00000000E+00  0.00000000E+00  0.00000000E+00
  0.00000000E+00  0.00000000E+00  0.00000000E+00
  0.00000000E+00  0.00000000E+00  0.00000000E+00
  0.00000000E+00  0.00000000E+00  0.00000000E+00
  0.00000000E+00  0.00000000E+00  0.00000000E+00
  0.00000000E+00  0.00000000E+00  0.00000000E+00
  0.00000000E+00  0.00000000E+00  0.00000000E+00
  0.00000000E+00  0.00000000E+00  0.00000000E+00
  0.00000000E+00  0.00000000E+00  0.00000000E+00
  0.00000000E+00  0.00000000E+00  0.00000000E+00
  0.00000000E+00  0.00000000E+00  0.00000000E+00
  0.00000000E+00  0.00000000E+00  0.00000000E+00
  0.00000000E+00  0.00000000E+00  0.00000000E+00
  0.00000000E+00  0.00000000E+00  0.00000000E+00
  0.00000000E+00  0.00000000E+00  0.00000000E+00
  0.00000000E+00  0.00000000E+00  0.00000000E+00
  0.00000000E+00  0.00000000E+00  0.00000000E+00
  0.00000000E+00  0.00000000E+00  0.00000000E+00
