Ca4 V8 O16                              
   1.00000000000000     
     9.1855170420781906    0.0002644470498794   -0.0001861883009811
    -0.0000434762490873   10.6594946690106180   -0.0529682652779658
     0.0000215551590530   -0.0222209156620707    3.0620299893748419
   Ca   V    O 
     4     8    16
Direct
  0.2535373889092878  0.8463951404927531  0.2393551421476370
  0.7535007978618480  0.6536113692043720  0.2606056389911111
  0.7465850172341121  0.1537401727303835  0.7584679179392065
  0.2465583346414388  0.3462793594336088  0.7412794407134373
  0.9315835788193426  0.8871888390927385  0.2383319198768433
  0.4315180628209149  0.6127488951111723  0.2623377345758757
  0.0685211459975269  0.1122120624575148  0.7552427557375941
  0.5684834848922447  0.3877991621019499  0.7446642062948351
  0.9210246191366797  0.3950696929002445  0.2548016830133500
  0.4210577175301078  0.1050240696433348  0.2448147844709510
  0.0789282694854452  0.6047664263305765  0.7447743484715037
  0.5790212511921200  0.8951871174593459  0.7551153647947230
  0.7097342661208510  0.3376810932322105  0.2628743819111174
  0.2097538322155269  0.1622898542845325  0.2368592181802689
  0.2901840377717734  0.6625220557131560  0.7410075709985923
  0.7902155728851579  0.8375154540963521  0.7596030830560039
  0.6185185926483328  0.0235623617472132  0.2549071599096934
  0.1185053408541737  0.4764585739872816  0.2448554057767573
  0.3815376880887253  0.9765944065099097  0.7449596169789177
  0.8815280169859410  0.5234187779619308  0.7546420002772318
  0.0203994090995618  0.7172843282116530  0.2515830921925027
  0.5203972422148430  0.7827503119145848  0.2486782525831195
  0.9795154510428306  0.2824166382975705  0.7475092282708606
  0.4794912233785392  0.2175249214055134  0.7523903422796119
  0.9204639158666219  0.0732030815965152  0.2571708196689850
  0.4203937072753829  0.4268009963825821  0.2428589862716170
  0.0795679660763011  0.9263146883545849  0.7375136597626849
  0.5794740689543763  0.5736401493464153  0.7627962448549679
 
  0.00000000E+00  0.00000000E+00  0.00000000E+00
  0.00000000E+00  0.00000000E+00  0.00000000E+00
  0.00000000E+00  0.00000000E+00  0.00000000E+00
  0.00000000E+00  0.00000000E+00  0.00000000E+00
  0.00000000E+00  0.00000000E+00  0.00000000E+00
  0.00000000E+00  0.00000000E+00  0.00000000E+00
  0.00000000E+00  0.00000000E+00  0.00000000E+00
  0.00000000E+00  0.00000000E+00  0.00000000E+00
  0.00000000E+00  0.00000000E+00  0.00000000E+00
  0.00000000E+00  0.00000000E+00  0.00000000E+00
  0.00000000E+00  0.00000000E+00  0.00000000E+00
  0.00000000E+00  0.00000000E+00  0.00000000E+00
  0.00000000E+00  0.00000000E+00  0.00000000E+00
  0.00000000E+00  0.00000000E+00  0.00000000E+00
  0.00000000E+00  0.00000000E+00  0.00000000E+00
  0.00000000E+00  0.00000000E+00  0.00000000E+00
  0.00000000E+00  0.00000000E+00  0.00000000E+00
  0.00000000E+00  0.00000000E+00  0.00000000E+00
  0.00000000E+00  0.00000000E+00  0.00000000E+00
  0.00000000E+00  0.00000000E+00  0.00000000E+00
  0.00000000E+00  0.00000000E+00  0.00000000E+00
  0.00000000E+00  0.00000000E+00  0.00000000E+00
  0.00000000E+00  0.00000000E+00  0.00000000E+00
  0.00000000E+00  0.00000000E+00  0.00000000E+00
  0.00000000E+00  0.00000000E+00  0.00000000E+00
  0.00000000E+00  0.00000000E+00  0.00000000E+00
  0.00000000E+00  0.00000000E+00  0.00000000E+00
  0.00000000E+00  0.00000000E+00  0.00000000E+00
