Ca2 Ti4 S6 O24                          
   1.00000000000000     
     7.6557662625005962   -0.3086911653285732    4.2100651306672052
     2.4351299661746575    6.9872297429664396    4.8029400550306143
    -0.0703666330600318   -0.6294607612283886    8.7988543971752939
   Ca   Ti   S    O 
     2     4     6    24
Direct
  0.1257379521311521  0.4108509660974468  0.7483057102035547
  0.6260165036702694  0.2478554031183332  0.9107268461145598
  0.6808162856330527  0.6643370675947876  0.6286374712818363
  0.1808967254042166  0.1286374305199542  0.1644095509797089
  0.8344139376445168  0.8433793383898730  0.8601945539548720
  0.3341931063326035  0.3606879512040365  0.3434308433549829
  0.9546422425331307  0.2430910466530398  0.5709773263548148
  0.4545960367520347  0.0710897072523672  0.7428848394626054
  0.5230851335609381  0.9334426665517844  0.2498210378335526
  0.7592173054213294  0.4396783273224150  0.0426912279855853
  0.2591938742520681  0.5421424793130843  0.9396720386559155
  0.0226213288412078  0.7501468242972753  0.4335493608525734
  0.4357192052881726  0.5760868433622450  0.8259909489591136
  0.9362066576130148  0.3263396956683527  0.0758680895078232
  0.7779618718969378  0.3930538454832468  0.5907040494967162
  0.0425264925859648  0.9276785393290279  0.3217444912460763
  0.5432039907972346  0.8211707614462153  0.4271810014851133
  0.2780896003756093  0.0904002534077591  0.8930301480385056
  0.7034421600670623  0.9356100745059147  0.1025979396671703
  0.2030094130927022  0.6030241336122583  0.4357990933244441
  0.1135778929800676  0.6698023009646238  0.8582968773470139
  0.4251697063013978  0.2424070521467399  0.5861091038768049
  0.9255770858918392  0.0859261247776271  0.7419641442706892
  0.6139282970988373  0.3582057217791362  0.1712597476192100
  0.0119585109327838  0.2002815082911655  0.4108781370644103
  0.5119862699232052  0.9114128876071035  0.6993306994934980
  0.4152469940738414  0.8827388282149089  0.2080098437119302
  0.7924071591868633  0.4389832057911067  0.8585703147755870
  0.2931172536295060  0.3576763603042614  0.9392780133595100
  0.9151116827015725  0.7083016457354750  0.3825068150987496
  0.0967571576941976  0.2967141778189066  0.5636147272799822
  0.5968652791454193  0.0634305116981412  0.7965394337807564
  0.4193235855965699  0.1330567167778521  0.2369744466853005
  0.7119168778556704  0.6250744044032372  0.0329960502334251
  0.2116562734771055  0.5329380507408423  0.1249503401932637
  0.9186101496178918  0.7370471478195140  0.6332047364503948
 
  0.00000000E+00  0.00000000E+00  0.00000000E+00
  0.00000000E+00  0.00000000E+00  0.00000000E+00
  0.00000000E+00  0.00000000E+00  0.00000000E+00
  0.00000000E+00  0.00000000E+00  0.00000000E+00
  0.00000000E+00  0.00000000E+00  0.00000000E+00
  0.00000000E+00  0.00000000E+00  0.00000000E+00
  0.00000000E+00  0.00000000E+00  0.00000000E+00
  0.00000000E+00  0.00000000E+00  0.00000000E+00
  0.00000000E+00  0.00000000E+00  0.00000000E+00
  0.00000000E+00  0.00000000E+00  0.00000000E+00
  0.00000000E+00  0.00000000E+00  0.00000000E+00
  0.00000000E+00  0.00000000E+00  0.00000000E+00
  0.00000000E+00  0.00000000E+00  0.00000000E+00
  0.00000000E+00  0.00000000E+00  0.00000000E+00
  0.00000000E+00  0.00000000E+00  0.00000000E+00
  0.00000000E+00  0.00000000E+00  0.00000000E+00
  0.00000000E+00  0.00000000E+00  0.00000000E+00
  0.00000000E+00  0.00000000E+00  0.00000000E+00
  0.00000000E+00  0.00000000E+00  0.00000000E+00
  0.00000000E+00  0.00000000E+00  0.00000000E+00
  0.00000000E+00  0.00000000E+00  0.00000000E+00
  0.00000000E+00  0.00000000E+00  0.00000000E+00
  0.00000000E+00  0.00000000E+00  0.00000000E+00
  0.00000000E+00  0.00000000E+00  0.00000000E+00
  0.00000000E+00  0.00000000E+00  0.00000000E+00
  0.00000000E+00  0.00000000E+00  0.00000000E+00
  0.00000000E+00  0.00000000E+00  0.00000000E+00
  0.00000000E+00  0.00000000E+00  0.00000000E+00
  0.00000000E+00  0.00000000E+00  0.00000000E+00
  0.00000000E+00  0.00000000E+00  0.00000000E+00
  0.00000000E+00  0.00000000E+00  0.00000000E+00
  0.00000000E+00  0.00000000E+00  0.00000000E+00
  0.00000000E+00  0.00000000E+00  0.00000000E+00
  0.00000000E+00  0.00000000E+00  0.00000000E+00
  0.00000000E+00  0.00000000E+00  0.00000000E+00
  0.00000000E+00  0.00000000E+00  0.00000000E+00
