Ca4 V4 P6 O24
1.0
2.570545 7.261498 4.370499
-0.005539 0.051989 8.777509
7.664004 0.054090 4.275544
Ca V P O
4 4 6 24
direct
0.426020 0.627646 0.531527 Ca
0.963182 0.002375 0.021936 Ca
0.398756 0.744717 0.098766 Ca
0.121762 0.406042 0.745039 Ca
0.647081 0.637412 0.632784 V
0.146800 0.147429 0.150965 V
0.845723 0.859857 0.855511 V
0.349955 0.345764 0.351427 V
0.247264 0.554658 0.946105 P
0.038015 0.751860 0.449334 P
0.961085 0.247731 0.556860 P
0.454282 0.040525 0.742942 P
0.535794 0.942138 0.251257 P
0.747857 0.454829 0.037996 P
0.564923 0.759435 0.409516 O
0.262439 0.066238 0.907751 O
0.407277 0.571704 0.760066 O
0.921145 0.280623 0.051430 O
0.777632 0.408212 0.562140 O
0.070975 0.909347 0.264057 O
0.934138 0.086466 0.739486 O
0.581383 0.426723 0.215096 O
0.716500 0.940246 0.086780 O
0.230138 0.589714 0.422631 O
0.083513 0.739414 0.927537 O
0.425499 0.227188 0.588624 O
0.194781 0.396634 0.978424 O
0.882832 0.703682 0.479018 O
0.029291 0.183621 0.395603 O
0.481056 0.873034 0.709178 O
0.387439 0.952370 0.199542 O
0.719350 0.488085 0.865719 O
0.297830 0.527570 0.102981 O
0.010817 0.778488 0.621783 O
0.106316 0.303585 0.547383 O
0.605591 1.001136 0.802201 O
0.470017 0.104481 0.312683 O
0.768888 0.626175 0.017757 O
