Fe2 P2 O7                               
   1.00000000000000     
     5.4090260356515429   -0.0034769844593767   -0.7605224060884328
    -1.3849789005179221    5.0037971718524910   -0.7878376450793259
     0.0325130345157282   -0.0001975794609254    4.4848545770257635
   Fe   P    O 
     2     2     7
Direct
  0.3032555866677242  0.7530631624341027  0.4838777812113761
  0.6947749137169126  0.3847021098136238  0.4583705440381678
  0.7859212508275846  0.8519410342838611  0.0627881775934114
  0.2146302413054499  0.2856761195561504  0.8787263896918134
  0.6292519194290591  0.6892070231479153  0.7594238272044365
  0.6331615901526320  0.0024959610028148  0.2466768515704061
  0.9188365726651142  0.6905140494920161  0.2504183445963051
  0.0025980362167672  0.0658967759935862  0.9699447173030435
  0.0792759974733031  0.4460162274656838  0.6922198841491394
  0.3692047787971688  0.1379244459117643  0.6934666039959509
  0.3696891127482900  0.4494630908984831  0.1826868786459599
 
  0.00000000E+00  0.00000000E+00  0.00000000E+00
  0.00000000E+00  0.00000000E+00  0.00000000E+00
  0.00000000E+00  0.00000000E+00  0.00000000E+00
  0.00000000E+00  0.00000000E+00  0.00000000E+00
  0.00000000E+00  0.00000000E+00  0.00000000E+00
  0.00000000E+00  0.00000000E+00  0.00000000E+00
  0.00000000E+00  0.00000000E+00  0.00000000E+00
  0.00000000E+00  0.00000000E+00  0.00000000E+00
  0.00000000E+00  0.00000000E+00  0.00000000E+00
  0.00000000E+00  0.00000000E+00  0.00000000E+00
  0.00000000E+00  0.00000000E+00  0.00000000E+00
