Ca4 Mn4 P6 O24                          
   1.00000000000000     
     2.6490730000000000    7.6292090000000004    4.3815780000000002
    -0.0162140000000000    0.1759060000000000    8.6266710000000000
     7.6446990000000001    0.2234110000000000    4.1909729999999996
   Ca   Mn   P    O 
     4     4     6    24
Direct
  0.2831298544131075  0.7929405205581607  0.5757063902577928
  0.9319012887730805  0.9955965855823304  0.0445031159849876
  0.3863297242578198  0.7324553568205442  0.1003995990520309
  0.1396289750636817  0.3812328643681923  0.7596172627669683
  0.6454391435407574  0.6387106049755995  0.6426372894048344
  0.1533377112335597  0.1413218074528724  0.1670315401647622
  0.8426802590173785  0.8670752353124392  0.8258891559487729
  0.3436447760628111  0.3123565518068857  0.3626768354100607
  0.2508047109227552  0.5427405962687291  0.9587693409179603
  0.0320322411802290  0.7633240297877300  0.4467594878565215
  0.9514839024268039  0.2479684948287836  0.5784550188256388
  0.4506000472495817  0.0309049144934572  0.7392363591282323
  0.5617026087071815  0.9189897369884746  0.2393606473062523
  0.7563073399062412  0.4833367477380773  0.0115832115708085
  0.5804101930259266  0.7565318617253582  0.4174179213528632
  0.2714621630873844  0.0582564367553139  0.9097106683604813
  0.4133319813995582  0.5412549414564091  0.7773963690228562
  0.8954971651282465  0.2862962520446795  1.0210597691457619
  0.7863109397637031  0.4196599525110101  0.5782520475861292
  0.0749227273844744  0.9044264900911165  0.2490330017778069
  0.8988323879058838  0.0860384278119137  0.7594658294109863
  0.6202733000836400  0.5139406414681659  0.1944928164358628
  0.7351444301600607  0.8715193433363694  0.0771936166677050
  0.2099385128754806  0.5972393813263990  0.4488729874229684
  0.1131812493655641  0.7416155912418736  0.9123047388243749
  0.4301158861195223  0.2147561521191519  0.5825616172183573
  0.1851932493913159  0.3913591220813437  0.9973837126963911
  0.8739513343034506  0.7185719315128435  0.4960515520571946
  0.0288677485346529  0.1900414348829558  0.4081872076624770
  0.4626380661871610  0.8683173437653705  0.6976169665755766
  0.3940983372349974  0.9287249691103061  0.2282209031575002
  0.6482650703326069  0.5393103665336032  0.8918000316235208
  0.2865773635538308  0.5137222493857607  0.1263035570372282
  0.0047430073439127  0.8468657907851538  0.5861341086903677
  0.1004586967140610  0.2729345146544037  0.5897666289046981
  0.6017491753871026  0.9670788979917589  0.8032003447914817
  0.5389179960524566  0.1022103125370921  0.2471165271052727
  0.8760677039030729  0.6098341042194871  0.8981641359299394
 
             NaN             NaN             NaN
             NaN             NaN             NaN
             NaN             NaN             NaN
             NaN             NaN             NaN
             NaN             NaN             NaN
             NaN             NaN             NaN
             NaN             NaN             NaN
             NaN             NaN             NaN
             NaN             NaN             NaN
             NaN             NaN             NaN
             NaN             NaN             NaN
             NaN             NaN             NaN
             NaN             NaN             NaN
             NaN             NaN             NaN
             NaN             NaN             NaN
             NaN             NaN             NaN
             NaN             NaN             NaN
             NaN             NaN             NaN
             NaN             NaN             NaN
             NaN             NaN             NaN
             NaN             NaN             NaN
             NaN             NaN             NaN
             NaN             NaN             NaN
             NaN             NaN             NaN
             NaN             NaN             NaN
             NaN             NaN             NaN
             NaN             NaN             NaN
             NaN             NaN             NaN
             NaN             NaN             NaN
             NaN             NaN             NaN
             NaN             NaN             NaN
             NaN             NaN             NaN
             NaN             NaN             NaN
             NaN             NaN             NaN
             NaN             NaN             NaN
             NaN             NaN             NaN
             NaN             NaN             NaN
             NaN             NaN             NaN
