Ca4 Mn4 P6 O24
1.0
2.649073 7.629209 4.381578
-0.016214 0.175906 8.626671
7.644699 0.223411 4.190973
Ca Mn P O
4 4 6 24
direct
0.331551 0.765934 0.584445 Ca
0.906030 0.989365 0.077928 Ca
0.375238 0.746192 0.105269 Ca
0.141166 0.392721 0.753034 Ca
0.635400 0.651371 0.635519 Mn
0.153422 0.150277 0.173744 Mn
0.845303 0.858633 0.832694 Mn
0.378433 0.326011 0.343092 Mn
0.246099 0.552721 0.955923 P
0.030744 0.767175 0.444774 P
0.950227 0.244254 0.588021 P
0.453792 0.043120 0.735257 P
0.555733 0.914615 0.246621 P
0.747638 0.480594 0.002106 P
0.569207 0.747934 0.423226 O
0.278573 0.067737 0.906968 O
0.392015 0.567429 0.762553 O
0.887141 0.288983 0.995952 O
0.787655 0.417885 0.592161 O
0.072873 0.919698 0.253484 O
0.899706 0.078514 0.767990 O
0.607541 0.485254 0.193917 O
0.726499 0.863523 0.084278 O
0.200545 0.592941 0.431230 O
0.097973 0.747133 0.940361 O
0.435315 0.230747 0.581770 O
0.178698 0.399952 -0.001306 O
0.863009 0.744800 0.481679 O
1.012198 0.186496 0.422093 O
0.462455 0.892317 0.680563 O
0.387731 0.941316 0.227120 O
0.638018 0.563433 0.877071 O
0.307263 0.508864 0.110957 O
0.016948 0.819865 0.600113 O
0.108549 0.257596 0.591644 O
0.608042 -0.023957 0.792868 O
0.550960 0.088285 0.257925 O
0.862284 0.605428 0.916288 O
