Ca12 Fe8 Si12 O48                       
   1.00000000000000     
     6.0286276155597136    6.0286237298947576    6.0285269896110334
     6.0286287911441239   -6.0285298035706161   -6.0286220970508744
    -6.0285336959169262    6.0286248595470902   -6.0286220495424363
   Ca   Fe   Si   O 
    12     8    12    48
Direct
  0.1250016013310145  0.8749990441496465  0.7500000060831482
  0.3750011240211748  0.6249993742991506  0.2500000090934904
  0.2500000295168974  0.8750009467607498  0.1249991568172604
  0.7500000712508879  0.6250012812344465  0.3749987165478785
  0.3749987648465662  0.2499998967442494  0.1250010904827406
  0.1249992305340797  0.7500002241657100  0.3750010705765590
  0.8749989849017297  0.1250015217388238  0.2500000091733412
  0.6249994579711284  0.3750011847840327  0.7500000107222249
  0.7500000270744778  0.1249991336975000  0.8750008177391777
  0.2500000697717226  0.3749988035938401  0.6250013393531901
  0.6250013665595660  0.7499998938497825  0.8749985935675682
  0.8750009074622227  0.2500002281049305  0.6249992784153875
  0.9999995112245017  0.0000011096500714  0.4999992841602605
  0.4999995038646290  0.5000002485780897  0.4999984034784362
  0.0000018057558790  0.5000010512198614  0.0000015829507021
  0.5000018390957024  0.0000002002995814  0.0000007594429334
  0.9999980974385423  0.4999989829091191  0.4999999620176041
  0.4999990837764514  0.9999990001068326  0.5000009105353911
  0.4999981378974496  0.4999982011735327  0.9999991488349806
  0.9999990638013259  0.9999981457923255  0.0000000934019866
  0.7500006626204083  0.3750007349438036  0.1250007721539461
  0.2500009503279372  0.1250006798627084  0.3750008452990556
  0.3750007790213701  0.7500011090972336  0.6250009763827720
  0.1250009192237371  0.2500007916206002  0.8750006345191110
  0.6250008075671190  0.8750007033671068  0.2500008994556353
  0.8750007271413125  0.6250008235030364  0.7500008971731873
  0.2499988386810230  0.6249990674448327  0.8749989214438756
  0.7499991628537472  0.8749991400031760  0.6249994647106689
  0.6249993105149798  0.2499992915849703  0.3749993383665498
  0.8749991836146052  0.7499989965035780  0.1249990635301472
  0.3749991287989261  0.1249992108747549  0.7499990973349782
  0.1249992143238643  0.3749990996103350  0.2499991031478928
  0.3932835156100793  0.3049724469867598  0.5091594768771799
  0.1067156988926783  0.1158776227256055  0.4116894039162986
  0.7041883940709681  0.1950268834559168  0.0883100523723996
  0.7958108457318929  0.3841205037106263  0.9908374378930702
  0.0883098720101856  0.2041884740661430  0.6950268742410088
  0.9908372496900384  0.2958108723293051  0.8841206594786399
  0.5091600130011571  0.8932842830775058  0.8049734468197229
  0.4116892478857750  0.6067162717412131  0.6158779753983765
  0.8841206605480778  0.4908370817031056  0.7958106981460986
  0.6950276657133045  0.5883103790684601  0.7041890936190285
  0.6158777343134290  0.9116898240848883  0.1067160771683717
  0.8049734762804803  0.0091596232780731  0.3932840686644070
  0.6067155681711185  0.6950265884294851  0.4908401138761462
  0.8932833871652193  0.8841218704114553  0.5883106475495765
  0.2958110694541318  0.8049721439037967  0.9116899255618591
  0.2041886229399665  0.6158789866288217  0.0091630026631648
  0.9116898120329324  0.7958111023010375  0.3049723799526944
  0.0091631063469748  0.7041887047240962  0.1158792620241158
  0.4908403429082355  0.1067161516947905  0.1950273356648893
  0.5883104405976667  0.3932841527419555  0.3841221287957310
  0.1158791069494569  0.5091627254164379  0.2041883015049422
  0.3049731791923662  0.4116903895744599  0.2958119442857239
  0.3841220350329806  0.0883109357654916  0.8932838854299732
  0.1950273598274279  0.9908401796339135  0.6067159999802314
  0.3841210000941686  0.7958114500788369  0.4908370901913770
  0.1950279418736756  0.7041895986134890  0.5883102179401973
  0.1158786707724104  0.1067165673768287  0.9116892400008823
  0.3049734156051471  0.3932843461846076  0.0091598212711830
  0.8932837503314275  0.5091593036269231  0.3049729178383558
  0.6067159585093904  0.4116894841492282  0.1158776214276287
  0.2041883089869714  0.0883098493634478  0.1950273986364408
  0.2958114837853074  0.9908372713348044  0.3841210162066062
  0.5883100101447525  0.6950273922265282  0.2041887242046414
  0.4908371929011537  0.8841206422269110  0.2958110593224745
  0.0091594213281141  0.8049731888409255  0.8932841929591504
  0.9116894258883335  0.6158773843154179  0.6067159453944910
  0.6158800380259919  0.2041898271960818  0.5091631559528196
  0.8049731069236543  0.2958116734140290  0.4116900469460276
  0.8841223694605702  0.8932842144108406  0.0883105235757498
  0.6950280630991941  0.6067175118346526  0.9908393371014128
  0.1067158295152595  0.4908403652175934  0.6950267636725371
  0.3932836241255444  0.5883104138317279  0.8841222904822175
  0.7958117124771960  0.9116900492353892  0.8049729507508872
  0.7041885400375492  0.0091623947161708  0.6158791022747252
  0.4116899876985300  0.3049728885110596  0.7958118758746053
  0.5091625170083560  0.1158787589183490  0.7041883712783843
  0.9908402911419074  0.1950270855816143  0.1067161096372331
  0.0883105731138656  0.3841220200727875  0.3932837782642196
 
  0.00000000E+00  0.00000000E+00  0.00000000E+00
  0.00000000E+00  0.00000000E+00  0.00000000E+00
  0.00000000E+00  0.00000000E+00  0.00000000E+00
  0.00000000E+00  0.00000000E+00  0.00000000E+00
  0.00000000E+00  0.00000000E+00  0.00000000E+00
  0.00000000E+00  0.00000000E+00  0.00000000E+00
  0.00000000E+00  0.00000000E+00  0.00000000E+00
  0.00000000E+00  0.00000000E+00  0.00000000E+00
  0.00000000E+00  0.00000000E+00  0.00000000E+00
  0.00000000E+00  0.00000000E+00  0.00000000E+00
  0.00000000E+00  0.00000000E+00  0.00000000E+00
  0.00000000E+00  0.00000000E+00  0.00000000E+00
  0.00000000E+00  0.00000000E+00  0.00000000E+00
  0.00000000E+00  0.00000000E+00  0.00000000E+00
  0.00000000E+00  0.00000000E+00  0.00000000E+00
  0.00000000E+00  0.00000000E+00  0.00000000E+00
  0.00000000E+00  0.00000000E+00  0.00000000E+00
  0.00000000E+00  0.00000000E+00  0.00000000E+00
  0.00000000E+00  0.00000000E+00  0.00000000E+00
  0.00000000E+00  0.00000000E+00  0.00000000E+00
  0.00000000E+00  0.00000000E+00  0.00000000E+00
  0.00000000E+00  0.00000000E+00  0.00000000E+00
  0.00000000E+00  0.00000000E+00  0.00000000E+00
  0.00000000E+00  0.00000000E+00  0.00000000E+00
  0.00000000E+00  0.00000000E+00  0.00000000E+00
  0.00000000E+00  0.00000000E+00  0.00000000E+00
  0.00000000E+00  0.00000000E+00  0.00000000E+00
  0.00000000E+00  0.00000000E+00  0.00000000E+00
  0.00000000E+00  0.00000000E+00  0.00000000E+00
  0.00000000E+00  0.00000000E+00  0.00000000E+00
  0.00000000E+00  0.00000000E+00  0.00000000E+00
  0.00000000E+00  0.00000000E+00  0.00000000E+00
  0.00000000E+00  0.00000000E+00  0.00000000E+00
  0.00000000E+00  0.00000000E+00  0.00000000E+00
  0.00000000E+00  0.00000000E+00  0.00000000E+00
  0.00000000E+00  0.00000000E+00  0.00000000E+00
  0.00000000E+00  0.00000000E+00  0.00000000E+00
  0.00000000E+00  0.00000000E+00  0.00000000E+00
  0.00000000E+00  0.00000000E+00  0.00000000E+00
  0.00000000E+00  0.00000000E+00  0.00000000E+00
  0.00000000E+00  0.00000000E+00  0.00000000E+00
  0.00000000E+00  0.00000000E+00  0.00000000E+00
  0.00000000E+00  0.00000000E+00  0.00000000E+00
  0.00000000E+00  0.00000000E+00  0.00000000E+00
  0.00000000E+00  0.00000000E+00  0.00000000E+00
  0.00000000E+00  0.00000000E+00  0.00000000E+00
  0.00000000E+00  0.00000000E+00  0.00000000E+00
  0.00000000E+00  0.00000000E+00  0.00000000E+00
  0.00000000E+00  0.00000000E+00  0.00000000E+00
  0.00000000E+00  0.00000000E+00  0.00000000E+00
  0.00000000E+00  0.00000000E+00  0.00000000E+00
  0.00000000E+00  0.00000000E+00  0.00000000E+00
  0.00000000E+00  0.00000000E+00  0.00000000E+00
  0.00000000E+00  0.00000000E+00  0.00000000E+00
  0.00000000E+00  0.00000000E+00  0.00000000E+00
  0.00000000E+00  0.00000000E+00  0.00000000E+00
  0.00000000E+00  0.00000000E+00  0.00000000E+00
  0.00000000E+00  0.00000000E+00  0.00000000E+00
  0.00000000E+00  0.00000000E+00  0.00000000E+00
  0.00000000E+00  0.00000000E+00  0.00000000E+00
  0.00000000E+00  0.00000000E+00  0.00000000E+00
  0.00000000E+00  0.00000000E+00  0.00000000E+00
  0.00000000E+00  0.00000000E+00  0.00000000E+00
  0.00000000E+00  0.00000000E+00  0.00000000E+00
  0.00000000E+00  0.00000000E+00  0.00000000E+00
  0.00000000E+00  0.00000000E+00  0.00000000E+00
  0.00000000E+00  0.00000000E+00  0.00000000E+00
  0.00000000E+00  0.00000000E+00  0.00000000E+00
  0.00000000E+00  0.00000000E+00  0.00000000E+00
  0.00000000E+00  0.00000000E+00  0.00000000E+00
  0.00000000E+00  0.00000000E+00  0.00000000E+00
  0.00000000E+00  0.00000000E+00  0.00000000E+00
  0.00000000E+00  0.00000000E+00  0.00000000E+00
  0.00000000E+00  0.00000000E+00  0.00000000E+00
  0.00000000E+00  0.00000000E+00  0.00000000E+00
  0.00000000E+00  0.00000000E+00  0.00000000E+00
  0.00000000E+00  0.00000000E+00  0.00000000E+00
  0.00000000E+00  0.00000000E+00  0.00000000E+00
  0.00000000E+00  0.00000000E+00  0.00000000E+00
  0.00000000E+00  0.00000000E+00  0.00000000E+00
