Ca2 Co4 S6 O24
1.0
7.685805 0.057196 4.436661
2.732488 6.981428 4.576410
0.294470 -0.031182 8.855529
Ca Co S O
2 4 6 24
direct
0.320198 0.771224 0.565820 Ca
0.965288 1.015562 1.013663 Ca
0.653730 0.643700 0.654175 Co
0.138790 0.152331 0.143224 Co
0.841025 0.849148 0.841512 Co
0.364138 0.348548 0.348436 Co
0.969690 0.247421 0.534093 S
0.432063 0.040017 0.751478 S
0.555948 0.958489 0.237391 S
0.742814 0.452260 0.048156 S
0.251161 0.541111 0.956086 S
0.034396 0.752208 0.453981 S
0.416722 0.556947 0.777786 O
0.882982 0.258628 0.107050 O
0.829342 0.431191 0.538633 O
0.086351 0.893654 0.263231 O
0.573999 0.784817 0.406271 O
0.242005 0.089267 0.898338 O
0.726006 0.918698 0.074826 O
0.175289 0.565445 0.460710 O
0.095316 0.733995 0.919104 O
0.445550 0.208038 0.581518 O
0.925382 0.094993 0.723430 O
0.565104 0.473461 0.205957 O
0.978984 0.200980 0.393915 O
0.442408 0.888393 0.713939 O
0.382875 1.002606 0.217824 O
0.721798 0.459686 0.890888 O
0.197142 0.394811 0.988057 O
0.849885 0.763678 0.495477 O
0.155888 0.231682 0.499389 O
0.578010 -0.028780 0.823863 O
0.554562 0.114717 0.255186 O
0.817107 0.592948 -0.006569 O
0.286481 0.511676 0.112738 O
0.026530 0.803106 0.593852 O
