Ca2 Co4 S6 O24
1.0
7.702280 0.058591 4.427412
2.756857 6.967623 4.592868
0.321961 -0.040530 8.865397
Ca Co S O
2 4 6 24
direct
0.290552 0.816890 0.577173 Ca
0.959881 1.018594 1.016296 Ca
0.655234 0.643229 0.655676 Co
0.137749 0.153247 0.143000 Co
0.839578 0.849152 0.839976 Co
0.366415 0.348447 0.348197 Co
0.972559 0.247338 0.532586 S
0.428733 0.039465 0.752050 S
0.558118 0.959599 0.235773 S
0.742030 0.452453 0.048849 S
0.251755 0.540628 0.956941 S
0.033008 0.753051 0.454293 S
0.418271 0.555665 0.779493 O
0.879081 0.257161 0.114287 O
0.839353 0.435084 0.534628 O
0.090106 0.891489 0.262260 O
0.575949 0.787552 0.406346 O
0.237632 0.093600 0.896818 O
0.725911 0.916435 0.072743 O
0.166868 0.561840 0.465274 O
0.096435 0.735077 0.917007 O
0.447583 0.204958 0.580273 O
0.924259 0.096104 0.722982 O
0.561348 0.480577 0.202374 O
0.977604 0.202034 0.393999 O
0.435259 0.887445 0.717255 O
0.381024 1.005085 0.221769 O
0.726071 0.455157 0.890418 O
0.197444 0.394793 0.989094 O
0.842479 0.775227 0.497320 O
0.164999 0.220158 0.497666 O
0.574217 -0.034797 0.827620 O
0.562027 0.117004 0.247534 O
0.819958 0.591740 -0.009762 O
0.284418 0.512336 0.114608 O
0.029812 0.803546 0.592451 O
