Ca19 V16 P24 O96                        
   1.00000000000000     
    -5.1925780000000001    7.3517979999999996    8.8769939999999998
     5.1032240000000000   -7.2895250000000003    8.7683520000000001
    10.2888880000000000    7.3454119999999996   -0.1616040000000000
   Ca   V    P    O 
    19    16    24    96
Direct
  0.5587072723392218  0.7323353427239763  0.4190570903001019
  0.5042418005982748  0.9811692386775627  0.0166260633093539
  0.0009568494016840  0.9764032512967428  0.5203130641365592
  0.0016122672547366  0.4795050209086552  0.0182981882004961
  0.4815076932553130  0.0182698117493100  0.4902744101780522
  0.4746363644620268  0.5151187910996297  0.9960311000046037
  0.9792898399887966  0.5194771619315557  0.4868637651555696
  0.9787411065305792  0.0138316872738136  0.9939799948863137
  0.5742088492007863  0.4280086275196325  0.2623173576850272
  0.5692037736847508  0.9154539053516013  0.7393200337052537
  0.0745651485750428  0.9132257270518979  0.2444617100961648
  0.0663349636288045  0.4149153681787627  0.7355299032727920
  0.2786704510916087  0.5707434265164495  0.4457029271726204
  0.2557639250577360  0.0831298415684596  0.9268088377218977
  0.7484708268450202  0.0767293803698864  0.4205862532957368
  0.7534796669855077  0.5767509034470575  0.9257854421948002
  0.5800942820733347  0.2526819445976482  0.9220393613814226
  0.0739368975264324  0.2472253097803153  0.4202552180076056
  0.0751822118210965  0.7459834984457639  0.9175145268645687
  0.6383661293468211  0.6349277891969486  0.6436937294803261
  0.6443727202203456  0.1348890785470015  0.1484819632036621
  0.1445967068874360  0.1383110375718989  0.6434255731431290
  0.1467210092385633  0.6408915505862691  0.1382850760047706
  0.1453458474248648  0.1476766839607193  0.1458304411950467
  0.1443709464501710  0.6463685203234841  0.6445905450652197
  0.6482459929195657  0.6465297965109599  0.1469391097586841
  0.6464285921372033  0.1485211261639832  0.6486594592338478
  0.8549503443591522  0.8564134743564563  0.8468572895273002
  0.8503803428409724  0.3517063584028218  0.3499215266732170
  0.3544643010788897  0.3543649031889049  0.8471772285231056
  0.3499011641288183  0.8584152911334717  0.3509893349311162
  0.3477604996210399  0.3477802687947938  0.3501132653856910
  0.3508096744605312  0.8494134758676822  0.8533797783533779
  0.8538055949173189  0.8463570531219851  0.3495409460802318
  0.8494914279771777  0.3482385975749114  0.8507676876747989
  0.4002004285585939  0.7533488261617819  0.5981855756731846
  0.4024473273996830  0.2484690549079314  0.0949354545689359
  0.8998910434848372  0.2454809187672679  0.5935783742573275
  0.9016517076629510  0.7489456925936118  0.0933485717623525
  0.3958088540178347  0.5978290668449970  0.2428704004268660
  0.4035502514766322  0.1010389348877232  0.7551356538273432
  0.9031773905089846  0.0982386916846862  0.2535013556395216
  0.8997049775099235  0.6011898863714299  0.7521600176835015
  0.6052303827947074  0.4051555529041510  0.7576456924257421
  0.6052706824579123  0.8975897612456553  0.2609476615889241
  0.1080086067480234  0.9035599035385231  0.7607234218349447
  0.1061272105103031  0.4065080873814756  0.2606640189676729
  0.2401472703169796  0.3891236755289547  0.5940044392377177
  0.2412865822600499  0.8947350735480515  0.0925038539072576
  0.7448437511293781  0.8955578688309196  0.5949594599016362
  0.7423473823021565  0.3942460332914383  0.0966598338843639
  0.7478189254800454  0.5960902558025903  0.3965382757846272
  0.7366003516646519  0.0909986845756405  0.8913988129609308
  0.2354420795867150  0.0932325572266314  0.3904030811872499
  0.2345404053195835  0.5901535704638616  0.8877668445496326
  0.5943609573466778  0.2380518713439528  0.3932776782165121
  0.5997021889076756  0.7438051895320363  0.8915099306926519
  0.1072402474425599  0.7517200665044558  0.3944431190281884
  0.1018635121279570  0.2455569382662152  0.8932611984240215
  0.6736818535383960  0.6066612917312103  0.4911753267155691
  0.6578322381698199  0.0817066909643123  0.9847473076947261
  0.1573287181897828  0.0792190348828837  0.4838285541212914
  0.1546959777501924  0.5795676913780429  0.9807209608899456
  0.1617771685873697  0.4864758353577140  0.5793458350120320
  0.1606317333704947  0.9881328800727570  0.0765018482702942
  0.6642883151149663  0.9897923858180170  0.5788751623940087
  0.6599789334027718  0.4859398506036187  0.0800622345514319
  0.4884164451163729  0.6716612852306902  0.5794830596828917
  0.4907770274981534  0.1639923252013390  0.0771837228824608
  0.9873775097143347  0.1601005321421220  0.5758174095464228
  0.9895438152329704  0.6643734287593243  0.0754819649496342
  0.5923662856987454  0.1715249836954444  0.4951304467850239
  0.5930408928737519  0.6631248614138050  0.9827525805497983
  0.1039402315489088  0.6597744568310293  0.4743370101523933
  0.0880160684692346  0.1641692175001393  0.9831721878905315
  0.5999519607507329  0.4834746802844821  0.6695718153111249
  0.5944690197060911  0.9727889144245410  0.1683385904741293
  0.0976857584349510  0.9800509149564275  0.6695459434416920
  0.0922986209842787  0.4849020918546958  0.1710717642924236
  0.4930818319494944  0.5851729954212478  0.1705430632056736
  0.4861798193699312  0.0789847486243525  0.6685726148220317
  0.9874551253208094  0.0787999338104003  0.1682909102689836
  0.9811298242912238  0.5807608791600727  0.6635748094982834
  0.5099932561590556  0.4162241349903189  0.8357719306960649
  0.5130434367862423  0.9098583444610550  0.3406420893612170
  0.0137858119483065  0.9154989713413236  0.8383786778639656
  0.0108850714822737  0.4137164914185059  0.3381759601419875
  0.5020467860303847  0.3133310892573127  0.3882376961358314
  0.5147918677567344  0.8307757486468875  0.9037672607870300
  0.0113085153794206  0.8267314583975726  0.4083216522450113
  0.0190695499427949  0.3351413296392045  0.9021047283480121
  0.8184836054013543  0.4997713003000762  0.4099945273551148
  0.8262302256854517  0.0126999498177944  0.9033765249360398
  0.3291362344550660  0.0194587010388396  0.3991597688990919
  0.3233882140960674  0.5110216972765563  0.8995866276455278
  0.4067752329028029  0.5032698873628511  0.3211120088032954
  0.4184948396718796  0.0086421123864282  0.8376186039409019
  0.9187681497132641  0.0069052415589350  0.3365302160902258
  0.9167201573774930  0.5081442943456419  0.8335409442427135
  0.4164685043998766  0.8349712134626682  0.5066060535552422
  0.4211471990852526  0.3304920934078308  0.0044578176481712
  0.9209009018034464  0.3291239996120196  0.5055375486950148
  0.9201830953681630  0.8307165314225157  0.0033926743481053
  0.3232239976896998  0.4013196824594202  0.5090924781021479
  0.3301979627624552  0.9150833763362828  0.0124107149561739
  0.8250016008477421  0.9084466958517853  0.5045160608588822
  0.8277127864134394  0.4134394584685661  0.0110531106257639
  0.2949342369189758  0.6929475999515716  0.5886665721291111
  0.2977742545019521  0.1865218247832029  0.0830773165191687
  0.7946910857987390  0.1861351945869262  0.5781164779508488
  0.7968633383590521  0.6881843278556595  0.0811271438711939
  0.7869758978644437  0.6013141481545903  0.7145462704636943
  0.7929508613246211  0.0945359572517540  0.2094051348792736
  0.2919364911052003  0.1012714547684493  0.7139261908617042
  0.2983789074907647  0.5956446749228405  0.1747747145469466
  0.1098525067564227  0.2911672020944354  0.2221698744624715
  0.1089875836353518  0.7877977793177928  0.7239023582038168
  0.6025617174263077  0.7810945295173918  0.2263768264048977
  0.6081171600880262  0.2881060939812009  0.7238243564864562
  0.6707944601309481  0.7970955243316104  0.5914081533082146
  0.6773716732172523  0.2909599905828401  0.0820563249972402
  0.1630018952338200  0.2928059843234155  0.5805965345887822
  0.1735595805099797  0.7942273820992568  0.0706900295436187
  0.6702611192013282  0.5837221135423112  0.3016668581936342
  0.6674421401620098  0.0669547188407931  0.7930353661114217
  0.1658615666786091  0.0701851303069736  0.2922574673241674
  0.1634264594776472  0.5684908228686650  0.7903140690091945
  0.5828384735413596  0.6822059368821367  0.7884477817709821
  0.5957785968457626  0.1498459123510073  0.3069889247202069
  0.0875731878446647  0.1870709326870328  0.7884681153064718
  0.1046650549565725  0.7077672979187635  0.2820160991240216
  0.4149433019410967  0.3110583190542200  0.1981073925478022
  0.4123218384015539  0.8180165179821417  0.7010445106510154
  0.9153487239602658  0.8122391180287812  0.1967077746073506
  0.9113044138092117  0.3061675271260030  0.6987159225933905
  0.3984413185577073  0.6953784141509008  0.3200786867518165
  0.4239663765546199  0.2015978986534485  0.8232996608936918
  0.9198415919474656  0.2005426094110198  0.3201702499062611
  0.9216206141831623  0.7019522136679456  0.8195592761415559
  0.2033990515085801  0.4326319899765390  0.3300278167041402
  0.2049022780891278  0.9270552980941024  0.8318023219511572
  0.7056721308149875  0.9195544998889895  0.3271034140862661
  0.7008360071231812  0.4228120567000758  0.8350167015641436
  0.8017795439457067  0.9048474282781263  0.6992856999366958
  0.7889895351403009  0.4026428187259612  0.2058583809690235
  0.2800995676626225  0.3899020398865848  0.7061100421866946
  0.2797710266892380  0.8946131015113207  0.2050107280803267
  0.2684602064712067  0.2102984920559783  0.3900193989979400
  0.2736009856432065  0.7051751732747954  0.8869884247454044
  0.8176223160553145  0.6943831245753715  0.3860472051986102
  0.7747956551128926  0.2061973615670470  0.8892195040656494
  0.6954051054593612  0.3048139325640918  0.3826236457834730
  0.7070675265674945  0.7990811890523374  0.8909292429499088
  0.2033373253844120  0.8238511387545706  0.4104565291263261
  0.2128318569447592  0.2921845976456617  0.9019567257617208
 
             NaN             NaN             NaN
             NaN             NaN             NaN
             NaN             NaN             NaN
             NaN             NaN             NaN
             NaN             NaN             NaN
             NaN             NaN             NaN
             NaN             NaN             NaN
             NaN             NaN             NaN
             NaN             NaN             NaN
             NaN             NaN             NaN
             NaN             NaN             NaN
             NaN             NaN             NaN
             NaN             NaN             NaN
             NaN             NaN             NaN
             NaN             NaN             NaN
             NaN             NaN             NaN
             NaN             NaN             NaN
             NaN             NaN             NaN
             NaN             NaN             NaN
             NaN             NaN             NaN
             NaN             NaN             NaN
             NaN             NaN             NaN
             NaN             NaN             NaN
             NaN             NaN             NaN
             NaN             NaN             NaN
             NaN             NaN             NaN
             NaN             NaN             NaN
             NaN             NaN             NaN
             NaN             NaN             NaN
             NaN             NaN             NaN
             NaN             NaN             NaN
             NaN             NaN             NaN
             NaN             NaN             NaN
             NaN             NaN             NaN
             NaN             NaN             NaN
             NaN             NaN             NaN
             NaN             NaN             NaN
             NaN             NaN             NaN
             NaN             NaN             NaN
             NaN             NaN             NaN
             NaN             NaN             NaN
             NaN             NaN             NaN
             NaN             NaN             NaN
             NaN             NaN             NaN
             NaN             NaN             NaN
             NaN             NaN             NaN
             NaN             NaN             NaN
             NaN             NaN             NaN
             NaN             NaN             NaN
             NaN             NaN             NaN
             NaN             NaN             NaN
             NaN             NaN             NaN
             NaN             NaN             NaN
             NaN             NaN             NaN
             NaN             NaN             NaN
             NaN             NaN             NaN
             NaN             NaN             NaN
             NaN             NaN             NaN
             NaN             NaN             NaN
             NaN             NaN             NaN
             NaN             NaN             NaN
             NaN             NaN             NaN
             NaN             NaN             NaN
             NaN             NaN             NaN
             NaN             NaN             NaN
             NaN             NaN             NaN
             NaN             NaN             NaN
             NaN             NaN             NaN
             NaN             NaN             NaN
             NaN             NaN             NaN
             NaN             NaN             NaN
             NaN             NaN             NaN
             NaN             NaN             NaN
             NaN             NaN             NaN
             NaN             NaN             NaN
             NaN             NaN             NaN
             NaN             NaN             NaN
             NaN             NaN             NaN
             NaN             NaN             NaN
             NaN             NaN             NaN
             NaN             NaN             NaN
             NaN             NaN             NaN
             NaN             NaN             NaN
             NaN             NaN             NaN
             NaN             NaN             NaN
             NaN             NaN             NaN
             NaN             NaN             NaN
             NaN             NaN             NaN
             NaN             NaN             NaN
             NaN             NaN             NaN
             NaN             NaN             NaN
             NaN             NaN             NaN
             NaN             NaN             NaN
             NaN             NaN             NaN
             NaN             NaN             NaN
             NaN             NaN             NaN
             NaN             NaN             NaN
             NaN             NaN             NaN
             NaN             NaN             NaN
             NaN             NaN             NaN
             NaN             NaN             NaN
             NaN             NaN             NaN
             NaN             NaN             NaN
             NaN             NaN             NaN
             NaN             NaN             NaN
             NaN             NaN             NaN
             NaN             NaN             NaN
             NaN             NaN             NaN
             NaN             NaN             NaN
             NaN             NaN             NaN
             NaN             NaN             NaN
             NaN             NaN             NaN
             NaN             NaN             NaN
             NaN             NaN             NaN
             NaN             NaN             NaN
             NaN             NaN             NaN
             NaN             NaN             NaN
             NaN             NaN             NaN
             NaN             NaN             NaN
             NaN             NaN             NaN
             NaN             NaN             NaN
             NaN             NaN             NaN
             NaN             NaN             NaN
             NaN             NaN             NaN
             NaN             NaN             NaN
             NaN             NaN             NaN
             NaN             NaN             NaN
             NaN             NaN             NaN
             NaN             NaN             NaN
             NaN             NaN             NaN
             NaN             NaN             NaN
             NaN             NaN             NaN
             NaN             NaN             NaN
             NaN             NaN             NaN
             NaN             NaN             NaN
             NaN             NaN             NaN
             NaN             NaN             NaN
             NaN             NaN             NaN
             NaN             NaN             NaN
             NaN             NaN             NaN
             NaN             NaN             NaN
             NaN             NaN             NaN
             NaN             NaN             NaN
             NaN             NaN             NaN
             NaN             NaN             NaN
             NaN             NaN             NaN
             NaN             NaN             NaN
             NaN             NaN             NaN
             NaN             NaN             NaN
             NaN             NaN             NaN
             NaN             NaN             NaN
             NaN             NaN             NaN
             NaN             NaN             NaN
             NaN             NaN             NaN
             NaN             NaN             NaN
