Ca19 V16 P24 O96
1.0
-5.192578 7.351798 8.876994
5.103224 -7.289525 8.768352
10.288888 7.345412 -0.161604
Ca V P O
19 16 24 96
direct
0.555957 0.704749 0.430565 Ca
0.504065 0.980897 0.017918 Ca
0.003554 0.976639 0.517737 Ca
0.001849 0.479580 0.018417 Ca
0.483005 0.017149 0.490287 Ca
0.474532 0.514425 0.997760 Ca
0.983212 0.518739 0.488042 Ca
0.978190 0.015115 0.993761 Ca
0.573917 0.428210 0.261542 Ca
0.571100 0.916168 0.740132 Ca
0.075163 0.913856 0.243753 Ca
0.068405 0.415428 0.736974 Ca
0.279754 0.572835 0.445656 Ca
0.255334 0.082295 0.925289 Ca
0.750501 0.077816 0.422441 Ca
0.754702 0.577351 0.926359 Ca
0.579076 0.251824 0.921040 Ca
0.074033 0.247058 0.419996 Ca
0.074753 0.746713 0.917793 Ca
0.639479 0.636044 0.639814 V
0.646423 0.136490 0.146724 V
0.145159 0.138727 0.642997 V
0.147088 0.640724 0.138443 V
0.146985 0.147901 0.145821 V
0.145231 0.647177 0.644704 V
0.647606 0.647724 0.145139 V
0.645684 0.149420 0.648201 V
0.853416 0.856151 0.847272 V
0.851245 0.355358 0.350237 V
0.354072 0.355736 0.848140 V
0.350879 0.858451 0.350885 V
0.348118 0.348511 0.350044 V
0.350909 0.849778 0.851625 V
0.852271 0.848884 0.349862 V
0.849604 0.348708 0.850489 V
0.400795 0.754652 0.597069 P
0.402487 0.248451 0.094767 P
0.900650 0.246582 0.593656 P
0.901805 0.749166 0.093739 P
0.396471 0.599380 0.243908 P
0.403411 0.101531 0.754658 P
0.903808 0.099334 0.252546 P
0.899837 0.601097 0.750955 P
0.604771 0.406431 0.758743 P
0.605838 0.899664 0.260296 P
0.106823 0.903753 0.760039 P
0.107982 0.406640 0.260887 P
0.241369 0.389911 0.593945 P
0.241897 0.895037 0.092089 P
0.741538 0.894112 0.591918 P
0.742413 0.394841 0.095983 P
0.744316 0.597007 0.394917 P
0.736697 0.092033 0.891101 P
0.236780 0.093716 0.390097 P
0.234998 0.591362 0.888018 P
0.597350 0.242546 0.393818 P
0.601404 0.746992 0.891484 P
0.106424 0.751762 0.393604 P
0.101864 0.246967 0.894298 P
0.667134 0.592539 0.487832 O
0.658159 0.081607 0.984531 O
0.158642 0.079898 0.483601 O
0.155005 0.580125 0.980719 O
0.163232 0.487214 0.579284 O
0.160998 0.988403 0.076490 O
0.661066 0.988664 0.576817 O
0.659979 0.486630 0.080255 O
0.487686 0.671523 0.578654 O
0.491700 0.164857 0.077803 O
0.987969 0.161174 0.574558 O
0.989760 0.664580 0.075444 O
0.594299 0.172260 0.492669 O
0.592192 0.660134 0.976874 O
0.105596 0.661308 0.475004 O
0.089478 0.165226 0.984022 O
0.596491 0.486228 0.672125 O
0.594812 0.976982 0.169321 O
0.096640 0.980387 0.668938 O
0.093543 0.484100 0.170573 O
0.492850 0.587080 0.170345 O
0.486260 0.080935 0.668110 O
0.989540 0.080895 0.168531 O
0.983236 0.581818 0.663980 O
0.510432 0.416034 0.837926 O
0.512743 0.910868 0.338797 O
0.012755 0.915945 0.837791 O
0.012903 0.413483 0.338423 O
0.502292 0.314119 0.389309 O
0.514258 0.831433 0.905292 O
0.009254 0.824837 0.407791 O
0.016437 0.333996 0.902359 O
0.826293 0.509266 0.403997 O
0.826431 0.013635 0.901435 O
0.330432 0.019970 0.398817 O
0.324595 0.513128 0.899791 O
0.408626 0.504518 0.322049 O
0.418956 0.009097 0.836907 O
0.919825 0.007570 0.335300 O
0.916599 0.507843 0.832146 O
0.415872 0.836601 0.506201 O
0.420973 0.330587 0.004517 O
0.920974 0.330937 0.505951 O
0.920915 0.831620 0.004291 O
0.325243 0.402924 0.509610 O
0.329631 0.915214 0.010678 O
0.827216 0.913459 0.508014 O
0.827636 0.414930 0.010413 O
0.294885 0.694988 0.588143 O
0.298477 0.185590 0.081527 O
0.795233 0.187415 0.579209 O
0.797279 0.687958 0.081130 O
0.788394 0.600674 0.709769 O
0.795039 0.094276 0.205314 O
0.291831 0.100596 0.713321 O
0.298320 0.596062 0.177015 O
0.112475 0.290978 0.223424 O
0.107103 0.787903 0.723361 O
0.605066 0.784781 0.221909 O
0.607656 0.289882 0.723274 O
0.671933 0.794274 0.577340 O
0.677189 0.291914 0.080025 O
0.164755 0.293536 0.579685 O
0.173438 0.794639 0.071769 O
0.671974 0.581301 0.296660 O
0.666769 0.069630 0.792996 O
0.167065 0.070126 0.292154 O
0.164390 0.569156 0.790341 O
0.590239 0.695643 0.782718 O
0.603522 0.160002 0.304192 O
0.090850 0.186990 0.789902 O
0.103553 0.704948 0.282519 O
0.413282 0.311385 0.197864 O
0.413730 0.819035 0.700133 O
0.915033 0.811567 0.197649 O
0.913383 0.306480 0.699062 O
0.398712 0.696565 0.320766 O
0.422244 0.202143 0.823389 O
0.917844 0.201135 0.320781 O
0.919285 0.701272 0.820392 O
0.204934 0.434105 0.330245 O
0.204135 0.926761 0.830684 O
0.705547 0.922710 0.327372 O
0.701527 0.424582 0.833955 O
0.786719 0.897780 0.701633 O
0.789589 0.401183 0.204857 O
0.281152 0.390532 0.706069 O
0.282397 0.895378 0.203885 O
0.269381 0.210840 0.389542 O
0.272886 0.706762 0.887223 O
0.799270 0.704714 0.392043 O
0.775082 0.207173 0.890048 O
0.695219 0.313929 0.387935 O
0.707875 0.803030 0.901169 O
0.201141 0.826668 0.406531 O
0.210356 0.299114 0.903412 O
