Mn4 P8 O24
1.0
-5.261273 -4.233900 2.951281
5.261273 -4.233900 -2.951281
5.261273 4.233900 7.218919
Mn P O
4 8 24
direct
0.000000 0.500000 1.000000 Mn2+
1.000000 1.000000 0.500000 Mn2+
0.206840 0.456840 0.750000 Mn2+
0.793160 0.543160 0.250000 Mn2+
0.004260 0.812220 0.805560 P5+
0.506660 0.198700 0.694440 P5+
0.995740 0.187780 0.194440 P5+
0.493340 0.801300 0.305560 P5+
0.264900 0.223560 0.022940 P5+
0.700620 0.241960 0.477060 P5+
0.735100 0.776440 0.977060 P5+
0.299380 0.758040 0.522940 P5+
0.808180 0.801670 0.843710 O2-
0.457960 0.964470 0.656290 O2-
0.191820 0.198330 0.156290 O2-
0.542040 0.035530 0.343710 O2-
0.204470 0.995060 0.939790 O2-
0.555270 0.264680 0.560210 O2-
0.795530 0.004940 0.060210 O2-
0.444730 0.735320 0.439790 O2-
0.965530 0.851640 0.660410 O2-
0.691230 0.305120 0.839590 O2-
0.034470 0.148360 0.339590 O2-
0.308770 0.694880 0.160410 O2-
0.041850 0.627630 0.822360 O2-
0.305270 0.219490 0.677640 O2-
0.958150 0.372370 0.177640 O2-
0.694730 0.780510 0.322360 O2-
0.132050 0.303280 0.919630 O2-
0.883650 0.212420 0.580370 O2-
0.867950 0.696720 0.080370 O2-
0.116350 0.787580 0.419630 O2-
0.503870 0.668010 0.912340 O2-
0.255670 0.591530 0.587660 O2-
0.496130 0.331990 0.087660 O2-
0.744330 0.408470 0.412340 O2-
