Cr12 P7                                 
   1.00000000000000     
     8.7664084351261877    0.0005986606291701    0.0000001322418787
    -4.3836257702570025    7.5916396912988242   -0.0000003058325635
     0.0000000840638360   -0.0000001330425260    3.4129051910536368
   Cr   P 
    12     7
Direct
  0.1343315834603475  0.6256240171358312  0.9999999797661255
  0.4912988199856194  0.8656892158714606  0.9999999870412613
  0.3743957415812615  0.5087127928438510  0.0000000148262721
  0.2518199269714533  0.9823283717171614  0.0000000074291704
  0.7305228182361497  0.7481989550382113  0.0000000153856630
  0.0176767457599023  0.2694797030346775 -0.0000000027134719
  0.6269537959089774  0.4865445980949585  0.5000000123867127
  0.8596026344428001  0.3730615925224179  0.4999999922290803
  0.5134465180288305  0.1403971323146728  0.4999999797857763
  0.2215207770000564  0.2061296380804164  0.5000000925524319
  0.9846325930557630  0.7784638836647175  0.5000000346058797
  0.7937688807903909  0.0153470974143981  0.4999998726563390
  0.0000001541713778  0.0000044520209789  0.0000000489723544
  0.8398698859585398  0.5548235334424187  0.0000000158758062
  0.7149620095093280  0.1601483398198843  0.9999999691136296
  0.4451823277695875  0.2850406732374646  0.0000000044365300
  0.2887631563348816  0.8334821667943612  0.4999999965345930
  0.5447305317953329  0.7112510706876533  0.4999999748953217
  0.1665210992393719  0.4552727662644577  0.5000000042205178
 
  0.00000000E+00  0.00000000E+00  0.00000000E+00
  0.00000000E+00  0.00000000E+00  0.00000000E+00
  0.00000000E+00  0.00000000E+00  0.00000000E+00
  0.00000000E+00  0.00000000E+00  0.00000000E+00
  0.00000000E+00  0.00000000E+00  0.00000000E+00
  0.00000000E+00  0.00000000E+00  0.00000000E+00
  0.00000000E+00  0.00000000E+00  0.00000000E+00
  0.00000000E+00  0.00000000E+00  0.00000000E+00
  0.00000000E+00  0.00000000E+00  0.00000000E+00
  0.00000000E+00  0.00000000E+00  0.00000000E+00
  0.00000000E+00  0.00000000E+00  0.00000000E+00
  0.00000000E+00  0.00000000E+00  0.00000000E+00
  0.00000000E+00  0.00000000E+00  0.00000000E+00
  0.00000000E+00  0.00000000E+00  0.00000000E+00
  0.00000000E+00  0.00000000E+00  0.00000000E+00
  0.00000000E+00  0.00000000E+00  0.00000000E+00
  0.00000000E+00  0.00000000E+00  0.00000000E+00
  0.00000000E+00  0.00000000E+00  0.00000000E+00
  0.00000000E+00  0.00000000E+00  0.00000000E+00
