Cr12 P7                                 
   1.00000000000000     
     8.7286553021436397    0.0003720702628943    0.0000003333981690
    -4.3648710425645554    7.5590066484931668   -0.0000013714533439
     0.0000001628554765   -0.0000005693221437    3.4129239297304719
   Cr   P 
    12     7
Direct
  0.1327992456653219  0.6231807867446599  0.0000000505672130
  0.4903900908038665  0.8672142782683545 -0.0000000543904542
  0.3768265282403426  0.5096180675766468  0.0000000281939606
  0.2526485887922444  0.9848422679980944 -0.0000000921508913
  0.7321895917288963  0.7473528350920099 -0.0000000220640069
  0.0151583112837283  0.2677994193864911  0.0000000764208844
  0.6284542716952134  0.4869325716029173  0.4999999217595951
  0.8584793058121140  0.3715478319962760  0.4999999343240997
  0.5130700525630042  0.1415175589057623  0.5000001044777838
  0.2214898546118513  0.2059645754245541  0.5000000597731676
  0.9844612611502546  0.7784938028813090  0.5000000102462957
  0.7940230524509263  0.0155264883166898  0.4999998981570544
 -0.0000047194971076 -0.0000092605698991  0.0000000690503473
  0.8401378801487993  0.5553904999291280 -0.0000000061965304
  0.7152589935370932  0.1598665526763912 -0.0000000298359277
  0.4446081020286929  0.2847480342264430 -0.0000000031458793
  0.2887216640250919  0.8367688236229843  0.5000001090904470
  0.5480468377096477  0.7112890586629156  0.4999999436064253
  0.1632410872500118  0.4519558072582787  0.5000000021164160
 
  0.00000000E+00  0.00000000E+00  0.00000000E+00
  0.00000000E+00  0.00000000E+00  0.00000000E+00
  0.00000000E+00  0.00000000E+00  0.00000000E+00
  0.00000000E+00  0.00000000E+00  0.00000000E+00
  0.00000000E+00  0.00000000E+00  0.00000000E+00
  0.00000000E+00  0.00000000E+00  0.00000000E+00
  0.00000000E+00  0.00000000E+00  0.00000000E+00
  0.00000000E+00  0.00000000E+00  0.00000000E+00
  0.00000000E+00  0.00000000E+00  0.00000000E+00
  0.00000000E+00  0.00000000E+00  0.00000000E+00
  0.00000000E+00  0.00000000E+00  0.00000000E+00
  0.00000000E+00  0.00000000E+00  0.00000000E+00
  0.00000000E+00  0.00000000E+00  0.00000000E+00
  0.00000000E+00  0.00000000E+00  0.00000000E+00
  0.00000000E+00  0.00000000E+00  0.00000000E+00
  0.00000000E+00  0.00000000E+00  0.00000000E+00
  0.00000000E+00  0.00000000E+00  0.00000000E+00
  0.00000000E+00  0.00000000E+00  0.00000000E+00
  0.00000000E+00  0.00000000E+00  0.00000000E+00
