Ca1 Fe4 S6 O24
1.0
7.559679 0.220050 4.600340
2.696626 7.056825 4.604230
0.324751 0.233526 8.847843
Ca Fe S O
1 4 6 24
direct
0.435187 0.593923 0.525678 Ca
0.649218 0.644565 0.647815 Fe
0.141981 0.145774 0.145126 Fe
0.846801 0.847817 0.850077 Fe
0.351427 0.349369 0.347953 Fe
0.950877 0.250304 0.532486 S
0.457576 0.041479 0.744562 S
0.536163 0.955397 0.248844 S
0.746601 0.457147 0.042954 S
0.248515 0.535014 0.954183 S
0.045506 0.745188 0.459518 S
0.387615 0.601522 0.758429 O
0.938232 0.311983 0.024424 O
0.764806 0.393111 0.600196 O
0.033685 0.935391 0.312924 O
0.603480 0.761170 0.390004 O
0.317940 0.025586 0.939213 O
0.675031 0.968432 0.055270 O
0.233141 0.602357 0.393115 O
0.057742 0.682068 0.966855 O
0.389059 0.236655 0.606404 O
0.962288 0.058099 0.678669 O
0.608273 0.393131 0.237873 O
0.960065 0.264874 0.354802 O
0.480033 0.896846 0.693584 O
0.348947 0.975166 0.270970 O
0.689567 0.489597 0.898533 O
0.257735 0.354922 0.974749 O
0.891446 0.702031 0.496277 O
0.106806 0.288263 0.500637 O
0.643522 0.017064 0.726510 O
0.512649 0.101777 0.296710 O
0.740003 0.636459 0.021155 O
0.301347 0.505981 0.099521 O
0.037653 0.733070 0.635820 O
