Ca4 V4 O14                              
   1.00000000000000     
     5.9871759644890767    0.0294032078628619    2.9409945467974299
     0.6664778176548644    6.8913217123902948    0.4516445661701523
     0.0006033829131085    0.0150559017229343    7.0209006946035526
   Ca   V    O 
     4     4    14
Direct
  0.7422276233226981  0.8412153271490013  0.3298515505315791
  0.2577767796177568  0.1587880457370332  0.6701437416771867
  0.2689449803169381  0.5606605324248477  0.2646746882953082
  0.7310622194280683  0.4393391780501759  0.7353258828661211
  0.1951667650048421  0.6660201279778803  0.7682829516782093
  0.8048244175594093  0.3339846297420053  0.2317241459829162
  0.7263152689839814  0.9448802190838634  0.8456612510068027
  0.2736805560741118  0.0551220189738615  0.1543327836186776
  0.9491711167955046  0.8020549442855156  0.9387029004221574
  0.0508206722454503  0.1979490701789430  0.0613067883688316
  0.5338096650975359  0.8999592610202640  0.1302859767327504
  0.4661863353444886  0.1000464063920532  0.8697158678177956
  0.1313984322612782  0.4920192456546530  0.6426766098820167
  0.8685955241448866  0.5079793899059268  0.3573227008610900
  0.8933629111051076  0.1259274467896034  0.7336725371634429
  0.1066468371176725  0.8740595248016092  0.2663167960514059
  0.3415515436283201  0.5536705298284872  0.8992724740062172
  0.6584407843022078  0.4463327111222242  0.1007255269950917
  0.3589920444377199  0.8173296784980550  0.5760395854696299
  0.6410169974844138  0.1826684459691350  0.4239581884070205
  0.7495706789152408  0.7804188593567360  0.6724324232369128
  0.2504378468123747  0.2195744070581114  0.3275746289288435
 
  0.00000000E+00  0.00000000E+00  0.00000000E+00
  0.00000000E+00  0.00000000E+00  0.00000000E+00
  0.00000000E+00  0.00000000E+00  0.00000000E+00
  0.00000000E+00  0.00000000E+00  0.00000000E+00
  0.00000000E+00  0.00000000E+00  0.00000000E+00
  0.00000000E+00  0.00000000E+00  0.00000000E+00
  0.00000000E+00  0.00000000E+00  0.00000000E+00
  0.00000000E+00  0.00000000E+00  0.00000000E+00
  0.00000000E+00  0.00000000E+00  0.00000000E+00
  0.00000000E+00  0.00000000E+00  0.00000000E+00
  0.00000000E+00  0.00000000E+00  0.00000000E+00
  0.00000000E+00  0.00000000E+00  0.00000000E+00
  0.00000000E+00  0.00000000E+00  0.00000000E+00
  0.00000000E+00  0.00000000E+00  0.00000000E+00
  0.00000000E+00  0.00000000E+00  0.00000000E+00
  0.00000000E+00  0.00000000E+00  0.00000000E+00
  0.00000000E+00  0.00000000E+00  0.00000000E+00
  0.00000000E+00  0.00000000E+00  0.00000000E+00
  0.00000000E+00  0.00000000E+00  0.00000000E+00
  0.00000000E+00  0.00000000E+00  0.00000000E+00
  0.00000000E+00  0.00000000E+00  0.00000000E+00
  0.00000000E+00  0.00000000E+00  0.00000000E+00
