Ca2 V8 O18                              
   1.00000000000000     
     8.3030645219640622    0.0027553181747833    0.0000005912659918
    -0.0024768543695856    8.3029942701276074   -0.0000171630724108
     0.0000002570183873   -0.0000103355470943    4.9765258966112098
   Ca   V    O 
     2     8    18
Direct
  0.7499704732630263  0.7499906739944109  0.8348265012965044
  0.2499700553368527  0.2499914802597019  0.1651737769707680
  0.4625249264080225  0.6576890300069209  0.3648959250303747
  0.0374421961274010  0.8422785915826339  0.3649436154508336
  0.6577104077595450  0.0374172022196007  0.3648698728763478
  0.8422888512090410  0.4625154157767568  0.3649881956017822
  0.5374419238238275  0.3422788444164979  0.6350566722973170
  0.9625245160213041  0.1576895566581129  0.6351034987781716
  0.3422901560110105  0.9625165909890327  0.6350113536060604
  0.1577099726577984  0.5374171352487949  0.6351288806153761
  0.6437768556956485  0.5425976596707898  0.5279109039237895
  0.8562171901689553  0.9572845908815708  0.5278934135650459
  0.5426933886217427  0.8561751501170320  0.5278811574698423
  0.9574068076401261  0.6437756335300406  0.5279971190909833
  0.3562171385390727  0.4572842924840401  0.4721069390995467
  0.1437767323897390  0.0425975729269936  0.4720917794775801
  0.4574078906035908  0.1437751777219987  0.4720007820442120
  0.0426919316056882  0.3561758277763403  0.4721151608148091
  0.4983546663902914  0.6767057216301211  0.0438584115585527
  0.0015169825927615  0.8234649993786434  0.0439122134208887
  0.6765895281094885  0.0016970504220311  0.0437779916207575
  0.8234595549605004  0.4984196657946498  0.0439377199581870
  0.5015164641533048  0.3234653634353890  0.9560890877670758
  0.9983541900559629  0.1767068089081363  0.9561429962527654
  0.3234628398947095  0.9984241282710755  0.9560649646932617
  0.1765884894764582  0.5016976582807544  0.9562206613597724
  0.2500481705515014  0.7499841463110499  0.4999800954703275
  0.7500476999326224  0.2499840313068660  0.5000203098890736
 
  0.00000000E+00  0.00000000E+00  0.00000000E+00
  0.00000000E+00  0.00000000E+00  0.00000000E+00
  0.00000000E+00  0.00000000E+00  0.00000000E+00
  0.00000000E+00  0.00000000E+00  0.00000000E+00
  0.00000000E+00  0.00000000E+00  0.00000000E+00
  0.00000000E+00  0.00000000E+00  0.00000000E+00
  0.00000000E+00  0.00000000E+00  0.00000000E+00
  0.00000000E+00  0.00000000E+00  0.00000000E+00
  0.00000000E+00  0.00000000E+00  0.00000000E+00
  0.00000000E+00  0.00000000E+00  0.00000000E+00
  0.00000000E+00  0.00000000E+00  0.00000000E+00
  0.00000000E+00  0.00000000E+00  0.00000000E+00
  0.00000000E+00  0.00000000E+00  0.00000000E+00
  0.00000000E+00  0.00000000E+00  0.00000000E+00
  0.00000000E+00  0.00000000E+00  0.00000000E+00
  0.00000000E+00  0.00000000E+00  0.00000000E+00
  0.00000000E+00  0.00000000E+00  0.00000000E+00
  0.00000000E+00  0.00000000E+00  0.00000000E+00
  0.00000000E+00  0.00000000E+00  0.00000000E+00
  0.00000000E+00  0.00000000E+00  0.00000000E+00
  0.00000000E+00  0.00000000E+00  0.00000000E+00
  0.00000000E+00  0.00000000E+00  0.00000000E+00
  0.00000000E+00  0.00000000E+00  0.00000000E+00
  0.00000000E+00  0.00000000E+00  0.00000000E+00
  0.00000000E+00  0.00000000E+00  0.00000000E+00
  0.00000000E+00  0.00000000E+00  0.00000000E+00
  0.00000000E+00  0.00000000E+00  0.00000000E+00
  0.00000000E+00  0.00000000E+00  0.00000000E+00
