Mn4 P4                                  
   1.00000000000000     
     5.8230588556077816   -0.0000000162062567    0.0000014969491325
    -0.0000000093178495    3.6704173828838758   -0.0000000130085229
     0.0000018182734052    0.0000000221752868    6.3380233826611700
   Mn   P 
     4     4
Direct
  0.4997812256417042  0.2500000010800958  0.2502935354789390
 -0.0002187794860926  0.2499999978002304  0.2497065432896790
  0.5002244303345910  0.7499999991577949  0.7497077880672549
  0.0002246349780738  0.7500000027535327  0.7502920064208927
  0.7493946976062156  0.2499999984847658  0.9165189925637619
  0.2493948046438659  0.2499999964593084  0.5834813625132760
  0.2505994336972650  0.7500000019111264  0.0834798292464145
  0.7505995525843773  0.7500000023531385  0.4165199424197822
 
  0.00000000E+00  0.00000000E+00  0.00000000E+00
  0.00000000E+00  0.00000000E+00  0.00000000E+00
  0.00000000E+00  0.00000000E+00  0.00000000E+00
  0.00000000E+00  0.00000000E+00  0.00000000E+00
  0.00000000E+00  0.00000000E+00  0.00000000E+00
  0.00000000E+00  0.00000000E+00  0.00000000E+00
  0.00000000E+00  0.00000000E+00  0.00000000E+00
  0.00000000E+00  0.00000000E+00  0.00000000E+00
