Mn4 P4
1.0
5.258000 0.000000 0.000000
0.000000 3.168000 0.000000
0.000000 0.000000 5.919000
Mn P
4 4
direct
0.505000 0.250000 0.300000 Mn2+
0.005000 0.250000 0.200000 Mn2+
0.495000 0.750000 0.700000 Mn2+
0.995000 0.750000 0.800000 Mn2+
0.690000 0.250000 0.930000 P2-
0.190000 0.250000 0.570000 P2-
0.310000 0.750000 0.070000 P2-
0.810000 0.750000 0.430000 P2-
