Ca4 V4 P6 O24
1.0
2.585652 7.265735 4.402499
-0.006580 0.078725 8.762982
7.659273 0.081890 4.253257
Ca V P O
4 4 6 24
direct
0.534487 0.473042 0.495815 Ca
0.962215 0.000531 0.021980 Ca
0.392594 0.746536 0.090915 Ca
0.103366 0.406698 0.748461 Ca
0.647882 0.641970 0.633522 V
0.150007 0.145663 0.151218 V
0.847769 0.861650 0.854706 V
0.346754 0.343807 0.350758 V
0.248258 0.553343 0.942569 P
0.037829 0.752072 0.449504 P
0.961453 0.243631 0.557529 P
0.458013 0.045862 0.743398 P
0.534611 0.938145 0.252751 P
0.747807 0.454446 0.042226 P
0.567068 0.752897 0.407303 O
0.264134 0.069373 0.907493 O
0.413324 0.567570 0.759146 O
0.918854 0.277626 0.062428 O
0.776739 0.407366 0.562794 O
0.073076 0.907953 0.262999 O
0.930981 0.087524 0.741534 O
0.577989 0.430851 0.219559 O
0.718052 0.936439 0.088063 O
0.232230 0.588557 0.424903 O
0.082125 0.735887 0.930254 O
0.422512 0.233356 0.588625 O
0.198364 0.394718 0.971012 O
0.887020 0.701037 0.473058 O
0.022105 0.186412 0.393133 O
0.493767 0.872123 0.714059 O
0.391165 0.950373 0.193484 O
0.727772 0.480853 0.867753 O
0.299187 0.523662 0.100970 O
0.001624 0.778183 0.625303 O
0.104391 0.303293 0.545479 O
0.609081 1.020615 0.795251 O
0.472623 0.100921 0.312928 O
0.766058 0.628336 0.019652 O
