Ca4 Mn4 P6 O24                          
   1.00000000000000     
     2.6527040000000000    7.7840309999999997    4.4912409999999996
     0.0167490000000000    0.2851520000000000    8.6386000000000003
     7.5552289999999998    0.2943930000000000    4.2048750000000004
   Ca   Mn   P    O 
     4     4     6    24
Direct
  0.5608532031608503  0.4443017268010941  0.5160024678026791
  0.9033738568103551  0.9891034698974192  0.0798918982470804
  0.3659976550099520  0.7382569940895733  0.1057260758332432
  0.1215092525300871  0.3919272672795469  0.7664116641480115
  0.6380413787993267  0.6689187833699969  0.6377025541061120
  0.1653213289346339  0.1396774342243507  0.1816817454032477
  0.8529425518177771  0.8668276260049724  0.8305845675353181
  0.3201284351038368  0.3142216957027845  0.3658480497947373
  0.2396427474601796  0.5545929971179274  0.9543660610906199
  0.0308423039402219  0.7729265129883657  0.4465687446609296
  0.9389446907830062  0.2530611635797714  0.5890017022070536
  0.4609210055402786  0.0578985738526785  0.7301923020674032
  0.5480080513856728  0.9148476247772942  0.2488406397558044
  0.7447223012690112  0.4928464435899180  0.0106252452545770
  0.5835269147418394  0.7401434845327929  0.4189019229927305
  0.2907039618769144  0.0685798054272784  0.9074430452622113
  0.3944274348600139  0.5622009530493101  0.7668384173161606
  0.8750028467929672  0.2942020978862788  1.0102138185124916
  0.7652408322945341  0.4246827576915345  0.6084952834698603
  0.0721739281640908  0.9223302252149077  0.2487308019979109
  0.8959445766150324  0.0898402224800402  0.7704325277005228
  0.6142059165190569  0.5098403887383025  0.2047136195267262
  0.7218160374850294  0.8791933066336847  0.0809287308654644
  0.2015074420549959  0.5962724222534264  0.4391195117945096
  0.0866855753251207  0.7432203978225054  0.9484007046344588
  0.4173659689888431  0.2518085977052119  0.5768961825047249
  0.1822191886484525  0.3954667694495826 -0.0050539167304631
  0.8723402261879947  0.7390804273550712  0.4812036660031424
  0.9831436287157949  0.2203319039430121  0.4113389608855035
  0.4839985545275241  0.9021974506636029  0.6738136860050070
  0.3958874547971580  0.9243354827856896  0.2203533477302094
  0.6273288421750811  0.5746601358428810  0.8938737747302928
  0.2964628498152565  0.5081973925491090  0.1162008172860006
  0.0072198183838800  0.8403259768852417  0.5945458002682663
  0.0860895080186781  0.2869444572524601  0.5846776670896824
  0.6188249553542684  0.0292265814761256  0.7600064592565925
  0.5201774296135182  0.0934342379423973  0.2701172525277127
  0.8627423937226693  0.6137600689218146  0.9091796760291954
 
             NaN             NaN             NaN
             NaN             NaN             NaN
             NaN             NaN             NaN
             NaN             NaN             NaN
             NaN             NaN             NaN
             NaN             NaN             NaN
             NaN             NaN             NaN
             NaN             NaN             NaN
             NaN             NaN             NaN
             NaN             NaN             NaN
             NaN             NaN             NaN
             NaN             NaN             NaN
             NaN             NaN             NaN
             NaN             NaN             NaN
             NaN             NaN             NaN
             NaN             NaN             NaN
             NaN             NaN             NaN
             NaN             NaN             NaN
             NaN             NaN             NaN
             NaN             NaN             NaN
             NaN             NaN             NaN
             NaN             NaN             NaN
             NaN             NaN             NaN
             NaN             NaN             NaN
             NaN             NaN             NaN
             NaN             NaN             NaN
             NaN             NaN             NaN
             NaN             NaN             NaN
             NaN             NaN             NaN
             NaN             NaN             NaN
             NaN             NaN             NaN
             NaN             NaN             NaN
             NaN             NaN             NaN
             NaN             NaN             NaN
             NaN             NaN             NaN
             NaN             NaN             NaN
             NaN             NaN             NaN
             NaN             NaN             NaN
