Ca4 Mn4 P6 O24
1.0
2.652704 7.784031 4.491241
0.016749 0.285152 8.638600
7.555229 0.294393 4.204875
Ca Mn P O
4 4 6 24
direct
0.553421 0.466771 0.528269 Ca
0.898808 0.980694 0.087654 Ca
0.368771 0.734947 0.110710 Ca
0.131774 0.385121 0.762317 Ca
0.637791 0.664346 0.637913 Mn
0.160913 0.136861 0.190167 Mn
0.856806 0.857434 0.829560 Mn
0.339823 0.307895 0.356757 Mn
0.247051 0.545121 0.952953 P
0.028201 0.772079 0.440730 P
0.943687 0.244890 0.593789 P
0.466288 0.053915 0.724380 P
0.553776 0.903534 0.250475 P
0.748317 0.487294 0.006240 P
0.589328 0.727358 0.419338 O
0.300602 0.062359 0.904784 O
0.397983 0.549895 0.762324 O
0.876141 0.290410 0.997189 O
0.775162 0.416995 0.624291 O
0.075223 0.923042 0.244903 O
0.902673 0.077641 0.772306 O
0.620372 0.496518 0.203143 O
0.723426 0.865549 0.079817 O
0.192975 0.591472 0.434461 O
0.095002 0.735523 0.946964 O
0.423201 0.248615 0.572767 O
0.183301 0.387533 0.001743 O
0.865356 0.753132 0.465725 O
0.969809 0.219889 0.419038 O
0.485190 0.902956 0.663958 O
0.393563 0.922253 0.229091 O
0.627202 0.584279 0.889779 O
0.310199 0.499556 0.109459 O
0.008197 0.833470 0.591648 O
0.102060 0.266210 0.579410 O
0.626706 0.023977 0.749430 O
0.536927 0.079725 0.267474 O
0.869937 0.604034 0.908110 O
