Ca1 Cr4 P6 O24                          
   1.00000000000000     
     2.6168570000000000    6.9820729999999998    4.4161080000000004
     0.2949610000000000    0.1323480000000000    8.6389200000000006
     7.4403150000000000    0.1440500000000000    4.3834700000000000
   Ca   Cr   P    O 
     1     4     6    24
Direct
  0.2542357221466772  0.8489023233461264  0.5873382378402436
  0.6490888811379387  0.6441780307479483  0.6376954155067963
  0.1349132305282806  0.1526511711072073  0.1357847434443136
  0.8477624451065011  0.8389481818716452  0.8595105517130769
  0.3638217601714211  0.3374719075297107  0.3613007459966203
  0.2572569542308609  0.5178502181655558  0.9594823682020632
  0.0301893590889763  0.7408797810038127  0.4707370668032235
  0.9678094948022914  0.2526690498157662  0.5156911793331714
  0.4501362511894715  0.0207673806533861  0.7546810509804563
  0.5515199184479882  0.9709217989550692  0.2323607570618593
  0.7433284478267664  0.4631878599625172  0.0465901959321095
  0.5821585114790507  0.7725507757305473  0.4021766190673444
  0.2866917360771224  0.0276686171866811  0.9473003836714345
  0.4299288121521370  0.5569040809315406  0.7695941028798441
  0.9263091740274789  0.2788915905820205  0.0523962573930923
  0.8049569425568258  0.4188944695618317  0.5808581091549595
  0.0611988875652972  0.9332571193916740  0.3226162417736834
  0.9399075712920455  0.0572709557870786  0.6661979858179981
  0.5714600521970493  0.4272235319079887  0.2305828110728077
  0.7116694408894508  0.9664444912618340  0.0399791827332953
  0.1976091421605045  0.5692227163681184  0.4150895817610696
  0.0839652739914735  0.7094822253661315  0.9290438111982311
  0.4158885734377646  0.2203498283652287  0.5906953234407696
  0.2327961507593007  0.3524761105848224  0.9636740565891231
  0.8418853883961501  0.7521564849848690  0.4859803106726236
  0.9804939960053600  0.2840390200894664  0.3190487470971721
  0.4565268178326727  0.8731212432101475  0.7005601555589345
  0.3514620145053853  1.0155891321291417  0.2379303126804682
  0.7044232026018763  0.5252839986873953  0.8668167962683161
  0.2947819781884157  0.4661609757408617  0.1352712112611941
  0.0238932918345599  0.7142151138971099  0.6646573340292429
  0.1647122497391906  0.2236567310590016  0.5041199934802889
  0.6435876290561704  0.9597611663546662  0.7682754778112472
  0.5405260153025963  0.1212733469721169  0.2841377726906530
  0.7748053244710748  0.6250675124405763  0.0407473460298354
 
             NaN             NaN             NaN
             NaN             NaN             NaN
             NaN             NaN             NaN
             NaN             NaN             NaN
             NaN             NaN             NaN
             NaN             NaN             NaN
             NaN             NaN             NaN
             NaN             NaN             NaN
             NaN             NaN             NaN
             NaN             NaN             NaN
             NaN             NaN             NaN
             NaN             NaN             NaN
             NaN             NaN             NaN
             NaN             NaN             NaN
             NaN             NaN             NaN
             NaN             NaN             NaN
             NaN             NaN             NaN
             NaN             NaN             NaN
             NaN             NaN             NaN
             NaN             NaN             NaN
             NaN             NaN             NaN
             NaN             NaN             NaN
             NaN             NaN             NaN
             NaN             NaN             NaN
             NaN             NaN             NaN
             NaN             NaN             NaN
             NaN             NaN             NaN
             NaN             NaN             NaN
             NaN             NaN             NaN
             NaN             NaN             NaN
             NaN             NaN             NaN
             NaN             NaN             NaN
             NaN             NaN             NaN
             NaN             NaN             NaN
             NaN             NaN             NaN
