Ca1 Cr4 P6 O24
1.0
2.616857 6.982073 4.416108
0.294961 0.132348 8.638920
7.440315 0.144050 4.383470
Ca Cr P O
1 4 6 24
direct
0.305909 0.787234 0.589678 Ca
0.645471 0.638300 0.646539 Cr
0.137389 0.141552 0.143407 Cr
0.850456 0.849701 0.852915 Cr
0.359964 0.352121 0.351819 Cr
0.247645 0.529148 0.965014 P
0.035614 0.746355 0.466253 P
0.957748 0.254388 0.522571 P
0.463887 0.029128 0.747954 P
0.534159 0.970184 0.241950 P
0.748722 0.456376 0.037304 P
0.579034 0.781466 0.412763 O
0.307745 0.041383 0.942860 O
0.410334 0.574759 0.768963 O
0.936083 0.285124 0.038675 O
0.781870 0.425315 0.564399 O
0.049696 0.931713 0.290387 O
0.941380 0.065872 0.696617 O
0.583348 0.423830 0.229713 O
0.689419 0.956729 0.050755 O
0.213122 0.574282 0.421123 O
0.065412 0.709023 0.949231 O
0.413204 0.220552 0.583834 O
0.227700 0.352875 0.991788 O
0.854145 0.723063 0.513581 O
0.971291 0.245674 0.343903 O
0.469345 0.865710 0.719812 O
0.334180 0.995280 0.264888 O
0.697295 0.488561 0.875632 O
0.294292 0.498290 0.127966 O
0.036362 0.754929 0.638307 O
0.143889 0.258516 0.493479 O
0.659356 -0.007435 0.737877 O
0.519570 0.136857 0.271979 O
0.773448 0.636120 0.000691 O
