Ca1 Mn4 P6 O24                          
   1.00000000000000     
     2.7299470000000001    6.8458009999999998    4.4061750000000002
     0.5666480000000000    0.3213220000000000    8.5594680000000007
     7.3952400000000003    0.2830530000000000    4.3413620000000002
   Ca   Mn   P    O 
     1     4     6    24
Direct
  0.4709476546061556  0.5289072153661428  0.4969608113310661
  0.6357430344184755  0.6515580411830378  0.6450120618118765
  0.1408513665246027  0.1534309171768433  0.1449734258720129
  0.8477080512991041  0.8549142559686619  0.8531200176280272
  0.3486672990005276  0.3564462364482293  0.3578738543274547
  0.2415606932704888  0.5349859628715723  0.9649683239338326
  0.0224423439416627  0.7580453820281885  0.4698906087386611
  0.9601939384342868  0.2539644135123020  0.5282647947545362
  0.4577809427406594  0.0366174780378667  0.7535780508510614
  0.5316592563458566  0.9734876448155881  0.2435935568727561
  0.7432362304699144  0.4728123032125470  0.0377800748206605
  0.6077720185470948  0.7596328693511991  0.3924832651898660
  0.3077420453395546  0.0119004206046069  0.9680338691340706
  0.3892870381099420  0.6163560310341362  0.7543512477176784
  0.9545863916940479  0.3155729704556737  0.0141559694810448
  0.7487760867639603  0.4002553875874252  0.6105910317611476
  0.0018718816368423  0.9737152515483740  0.3265196315964042
  0.9831168041592728  0.0371025092465428  0.6709894815283539
  0.5927191961478144  0.3979456404771139  0.2490136748475119
  0.6817258979358798  0.9978365306716113  0.0294237548315771
  0.2314231208037757  0.6126787940722376  0.3823368439840190
  0.0303445291067051  0.6918382893356377  0.9876969937165448
  0.3809066478140073  0.2521154815544875  0.6064858629977394
  0.2716927329346547  0.3402742760659360  0.9649292866580458
  0.8637280435051659  0.7102737364609318  0.4933111729840371
  0.9773441873825055  0.2964622659252561  0.3204216754092976
  0.4773339582732061  0.8870570547135513  0.6949979884092796
  0.3297921730164885  0.9867575662517787  0.2758074665502940
  0.6849677789922820  0.5083309181682739  0.8796026481688244
  0.3002626647099225  0.4964907108527221  0.1233568000153893
  0.0188052576917876  0.7117938554901105  0.6736210511257421
  0.1181686733924389  0.2998231303925498  0.5110168873963756
  0.6624407757346459  0.0151707927988186  0.7218341054589809
  0.5089193620520305  0.1241941320758368  0.3026103303489160
  0.7163450609050844  0.6689539648047012  0.0318910084282971
 
             NaN             NaN             NaN
             NaN             NaN             NaN
             NaN             NaN             NaN
             NaN             NaN             NaN
             NaN             NaN             NaN
             NaN             NaN             NaN
             NaN             NaN             NaN
             NaN             NaN             NaN
             NaN             NaN             NaN
             NaN             NaN             NaN
             NaN             NaN             NaN
             NaN             NaN             NaN
             NaN             NaN             NaN
             NaN             NaN             NaN
             NaN             NaN             NaN
             NaN             NaN             NaN
             NaN             NaN             NaN
             NaN             NaN             NaN
             NaN             NaN             NaN
             NaN             NaN             NaN
             NaN             NaN             NaN
             NaN             NaN             NaN
             NaN             NaN             NaN
             NaN             NaN             NaN
             NaN             NaN             NaN
             NaN             NaN             NaN
             NaN             NaN             NaN
             NaN             NaN             NaN
             NaN             NaN             NaN
             NaN             NaN             NaN
             NaN             NaN             NaN
             NaN             NaN             NaN
             NaN             NaN             NaN
             NaN             NaN             NaN
             NaN             NaN             NaN
