Ca1 Mn4 P6 O24
1.0
2.729947 6.845801 4.406175
0.566648 0.321322 8.559468
7.395240 0.283053 4.341362
Ca Mn P O
1 4 6 24
direct
0.466474 0.541347 0.506216 Ca
0.642530 0.644128 0.642485 Mn
0.143808 0.146991 0.144109 Mn
0.849615 0.848554 0.851314 Mn
0.353579 0.350921 0.353542 Mn
0.246638 0.528766 0.962529 P
0.029239 0.749544 0.466636 P
0.964838 0.246485 0.527893 P
0.462042 0.030340 0.751515 P
0.533567 0.965859 0.242839 P
0.748210 0.465535 0.034081 P
0.609363 0.753880 0.392209 O
0.311582 0.008567 0.964676 O
0.396341 0.605642 0.752039 O
0.959296 0.311567 0.013189 O
0.759647 0.396032 0.608438 O
0.014239 0.961337 0.319753 O
0.982645 0.033091 0.675832 O
0.597701 0.390763 0.243221 O
0.683824 0.987030 0.030012 O
0.234361 0.599119 0.387230 O
0.036152 0.683481 0.980858 O
0.385492 0.242174 0.603038 O
0.275349 0.331898 0.970895 O
0.868341 0.706662 0.491147 O
0.974452 0.284834 0.325242 O
0.484891 0.876117 0.696578 O
0.331324 0.980624 0.275608 O
0.694814 0.496490 0.875595 O
0.299815 0.498941 0.120351 O
0.020555 0.710961 0.669333 O
0.126448 0.288368 0.503685 O
0.663770 0.013580 0.720538 O
0.510157 0.120115 0.297581 O
0.720131 0.662685 0.024750 O
