Ca4 Ni4 P6 O24
1.0
2.543998 7.310414 4.407218
-0.071348 0.104604 8.657961
7.559016 0.122093 4.226133
Ca Ni P O
4 4 6 24
direct
0.533619 0.472694 0.497320 Ca
0.963108 0.998633 0.022965 Ca
0.390754 0.743615 0.088618 Ca
0.104281 0.408088 0.751230 Ca
0.651229 0.644787 0.630954 Ni
0.153699 0.147883 0.154372 Ni
0.844053 0.865069 0.852331 Ni
0.343086 0.340924 0.348992 Ni
0.248062 0.549956 0.945877 P
0.038064 0.751314 0.448078 P
0.962093 0.244254 0.556382 P
0.457687 0.047839 0.744953 P
0.533623 0.939532 0.251680 P
0.748352 0.455694 0.040195 P
0.564884 0.757870 0.411909 O
0.263912 0.071090 0.910609 O
0.413178 0.562292 0.762217 O
0.918055 0.276173 0.059691 O
0.779343 0.408276 0.558154 O
0.075636 0.908588 0.261255 O
0.931193 0.083532 0.737768 O
0.578362 0.436305 0.219415 O
0.716258 0.939012 0.087747 O
0.231931 0.585468 0.424637 O
0.082520 0.733396 0.934436 O
0.420340 0.234682 0.587541 O
0.198145 0.388184 0.976624 O
0.887960 0.702422 0.466748 O
0.027569 0.187146 0.385666 O
0.494350 0.868746 0.719412 O
0.391581 0.948276 0.194372 O
0.722095 0.482975 0.866865 O
0.298292 0.518110 0.107753 O
0.001213 0.776426 0.627422 O
0.104641 0.300995 0.547401 O
0.607959 0.028934 0.793702 O
0.467020 0.109889 0.309688 O
0.775055 0.628717 0.013232 O
