Co4 P8 O24                              
   1.00000000000000     
     4.5626221064752102    4.1347687138076870   -3.6911639575556126
    -4.5639632156296184    4.1366912466694910    3.6919908612248094
     4.5768026287088563   -4.1358912219970989    7.4699686722597143
   Co   P    O 
     4     8    24
Direct
  0.8020635852381557  0.5518188221972959  0.7501692970362706
  0.1976079029249563  0.4485341964602834  0.2503228806967246
  0.9999478433472273  0.4998121242969289  0.5000476275791136
  0.0001538341313246  0.0000860413200689  0.0000314241387516
  0.2711525564534841  0.2277674961883704  0.5230674524116103
  0.7044847273182195  0.2480323409801868  0.9768545002149948
  0.7289123868742622  0.7722114026281013  0.4769647663856577
  0.2954356602965007  0.7518634389077191  0.0231053013683062
  0.9947942240505554  0.1896492527821217  0.6975770609851097
  0.4923582186472955  0.7973017863135629  0.8024666153010990
  0.0051072200004572  0.8102285295816221  0.3023910344908241
  0.5076917926767265  0.2027240110288490  0.1974762069594059
  0.5081890494040296  0.3423369771638700  0.5913680981028789
  0.7511094375489730  0.4165893888155330  0.9083431642994388
  0.4918036280218074  0.6572816397621005  0.4085011700125801
  0.2491931194758930  0.5832799624890352  0.0914900753439466
  0.1289299389653851  0.3072376255650515  0.4174738862636446
  0.8897119819106292  0.2119200099725295  0.0827317051369057
  0.8710825633897983  0.6929431840099052  0.5826795334706376
  0.1103348025032660  0.7883465955709176  0.9174102098732775
  0.1911308549340339  0.1922953572187481  0.6557331894830152
  0.5366634480692573  0.0353923746955520  0.8442560147361206
  0.8088479439541190  0.8076283916253297  0.3442855734068209
  0.4634526545785033  0.9646405511406270  0.1557098621720346
  0.0387192254348364  0.1537221310243723  0.8479961104043537
  0.3057769006511756  0.6907948459252931  0.6521237704735819
  0.9612454231465128  0.8462517118864338  0.1520101139344844
  0.6942589162372651  0.3092537539205114  0.3478232567657237
  0.9607938622099871  0.3807353989291599  0.6784421492154101
  0.7027891468500027  0.7826997313381567  0.8214295018575885
  0.0388975609131441  0.6189588028208446  0.3214584340100292
  0.2974492655140195  0.2176102769313711  0.1783892776840594
  0.7845749611870155  0.0027741722682387  0.5641270426436314
  0.4391582320205313  0.7207213554519999  0.9359755974200665
  0.2151797185326531  0.9970539201639359  0.4358070556958241
  0.5609974125880108  0.2795023986253802  0.0639610400260843
 
  0.00000000E+00  0.00000000E+00  0.00000000E+00
  0.00000000E+00  0.00000000E+00  0.00000000E+00
  0.00000000E+00  0.00000000E+00  0.00000000E+00
  0.00000000E+00  0.00000000E+00  0.00000000E+00
  0.00000000E+00  0.00000000E+00  0.00000000E+00
  0.00000000E+00  0.00000000E+00  0.00000000E+00
  0.00000000E+00  0.00000000E+00  0.00000000E+00
  0.00000000E+00  0.00000000E+00  0.00000000E+00
  0.00000000E+00  0.00000000E+00  0.00000000E+00
  0.00000000E+00  0.00000000E+00  0.00000000E+00
  0.00000000E+00  0.00000000E+00  0.00000000E+00
  0.00000000E+00  0.00000000E+00  0.00000000E+00
  0.00000000E+00  0.00000000E+00  0.00000000E+00
  0.00000000E+00  0.00000000E+00  0.00000000E+00
  0.00000000E+00  0.00000000E+00  0.00000000E+00
  0.00000000E+00  0.00000000E+00  0.00000000E+00
  0.00000000E+00  0.00000000E+00  0.00000000E+00
  0.00000000E+00  0.00000000E+00  0.00000000E+00
  0.00000000E+00  0.00000000E+00  0.00000000E+00
  0.00000000E+00  0.00000000E+00  0.00000000E+00
  0.00000000E+00  0.00000000E+00  0.00000000E+00
  0.00000000E+00  0.00000000E+00  0.00000000E+00
  0.00000000E+00  0.00000000E+00  0.00000000E+00
  0.00000000E+00  0.00000000E+00  0.00000000E+00
  0.00000000E+00  0.00000000E+00  0.00000000E+00
  0.00000000E+00  0.00000000E+00  0.00000000E+00
  0.00000000E+00  0.00000000E+00  0.00000000E+00
  0.00000000E+00  0.00000000E+00  0.00000000E+00
  0.00000000E+00  0.00000000E+00  0.00000000E+00
  0.00000000E+00  0.00000000E+00  0.00000000E+00
  0.00000000E+00  0.00000000E+00  0.00000000E+00
  0.00000000E+00  0.00000000E+00  0.00000000E+00
  0.00000000E+00  0.00000000E+00  0.00000000E+00
  0.00000000E+00  0.00000000E+00  0.00000000E+00
  0.00000000E+00  0.00000000E+00  0.00000000E+00
  0.00000000E+00  0.00000000E+00  0.00000000E+00
