Co4 P8 O24
1.0
4.581400 4.139500 -3.703330
-4.581400 4.139500 3.703330
4.581400 -4.139500 7.478670
Co P O
4 8 24
direct
0.802110 0.552110 0.750000 Co2+
0.197890 0.447890 0.250000 Co2+
0.000000 0.500000 0.500000 Co2+
0.000000 0.000000 0.000000 Co2+
0.270470 0.226860 0.523390 P5+
0.703470 0.247080 0.976610 P5+
0.729530 0.773140 0.476610 P5+
0.296530 0.752920 0.023390 P5+
0.995410 0.189080 0.697130 P5+
0.491950 0.798280 0.802870 P5+
0.004590 0.810920 0.302870 P5+
0.508050 0.201720 0.197130 P5+
0.506960 0.342020 0.591640 O2-
0.750380 0.415320 0.908360 O2-
0.493040 0.657980 0.408360 O2-
0.249620 0.584680 0.091640 O2-
0.129370 0.306690 0.417660 O2-
0.889030 0.211710 0.082340 O2-
0.870630 0.693310 0.582340 O2-
0.110970 0.788290 0.917660 O2-
0.191550 0.191690 0.655940 O2-
0.535750 0.035610 0.844060 O2-
0.808450 0.808310 0.344060 O2-
0.464250 0.964390 0.155940 O2-
0.039360 0.152960 0.847300 O2-
0.305660 0.692060 0.652700 O2-
0.960640 0.847040 0.152700 O2-
0.694340 0.307940 0.347300 O2-
0.962020 0.380190 0.678290 O2-
0.701900 0.783730 0.821710 O2-
0.037980 0.619810 0.321710 O2-
0.298100 0.216270 0.178290 O2-
0.785380 0.003110 0.563850 O2-
0.439260 0.721530 0.936150 O2-
0.214620 0.996890 0.436150 O2-
0.560740 0.278470 0.063850 O2-
