Ca10 P6 O25                             
   1.00000000000000     
     9.4255242277171227   -0.0001286742546270    0.0000000169598381
    -4.7126091245904114    8.1628257458300482    0.0000000103057709
     0.0000000119053884    0.0000000153011525    6.8592372222122524
   Ca   P    O 
    10     6    25
Direct
  0.3333263028251494  0.6666605617517760  0.2533528381949495
  0.3333262993123896  0.6666605573015119  0.7466471596981563
  0.6666806014560365  0.3333463539974275  0.2557366445022353
  0.6666805956391997  0.3333463502347129  0.7442633588241776
  0.7221390860950336  0.7318532204138180  0.9999999978917984
  0.0097214840247304  0.2778714858675997  0.9999999990900079
  0.2681557260871301  0.9902845691968807  0.9999999952468173
  0.2286751310122739  0.2297818816077921  0.4999999996877875
  0.0011186391847602  0.7713426417749147  0.5000000022487825
  0.7702197660570249  0.9988832932766485  0.5000000004655334
  0.9693951678261499  0.6129742230876047  0.0000000059803966
  0.6435800818163315  0.0306034143794705  0.0000000017349464
  0.3870230229031577  0.3564198643032199  0.0000000018646560
  0.0315183177365341  0.4099574517445461  0.4999999982552268
  0.3784415592023223  0.9684819096974593  0.4999999990645563
  0.5900360722484521  0.6215569839260269  0.4999999969443181
  0.1543907691308490  0.6749391541288503  0.0000000068594446
  0.5205438215831180  0.8456080796840908  0.9999999951224794
  0.3250494797321792  0.4794450554845184  0.9999999971020443
  0.8453187536956861  0.3364230648898072  0.4999999973869294
  0.4911138085522353  0.1546787125751550  0.5000000013327082
  0.6635645411803921  0.5088881466773358  0.5000000035465746
  0.8741260403024285  0.4231243926558790  0.9999999995136548
  0.5490043402426750  0.1258806677357711  0.0000000052601195
  0.5768741900360297  0.4510055109711075  0.0000000149719241
  0.1229998519348285  0.5982540458353185  0.5000000027993821
  0.4752478353889629  0.8769911969385404  0.4999999964782873
  0.4017401821240867  0.5247480846048873  0.4999999933151074
  0.9157107133424631  0.6730746844343329  0.1777656281007722
  0.7573651476680467  0.0842834537171058  0.1777661484660058
  0.3269220970397697  0.2426356399242593  0.1777658786109910
  0.9157107214606768  0.6730746961968066  0.8222343834185466
  0.7573651474229024  0.0842834648876334  0.8222338488589784
  0.3269221283325905  0.2426356590012517  0.8222341043658332
  0.0874096331930758  0.3568610551457994  0.3175646826111702
  0.2694496279990020  0.9125923507078753  0.3175674958628036
  0.6431357168120826  0.7305449837084694  0.3175648972849174
  0.0874096303961025  0.3568610513340360  0.6824353142292523
  0.2694496210265385  0.9125923452751294  0.6824324974758298
  0.6431357107217366  0.7305449799000598  0.6824351001707285
  0.0000026372548518  0.0000047610245844  0.5000000071611694
 
  0.00000000E+00  0.00000000E+00  0.00000000E+00
  0.00000000E+00  0.00000000E+00  0.00000000E+00
  0.00000000E+00  0.00000000E+00  0.00000000E+00
  0.00000000E+00  0.00000000E+00  0.00000000E+00
  0.00000000E+00  0.00000000E+00  0.00000000E+00
  0.00000000E+00  0.00000000E+00  0.00000000E+00
  0.00000000E+00  0.00000000E+00  0.00000000E+00
  0.00000000E+00  0.00000000E+00  0.00000000E+00
  0.00000000E+00  0.00000000E+00  0.00000000E+00
  0.00000000E+00  0.00000000E+00  0.00000000E+00
  0.00000000E+00  0.00000000E+00  0.00000000E+00
  0.00000000E+00  0.00000000E+00  0.00000000E+00
  0.00000000E+00  0.00000000E+00  0.00000000E+00
  0.00000000E+00  0.00000000E+00  0.00000000E+00
  0.00000000E+00  0.00000000E+00  0.00000000E+00
  0.00000000E+00  0.00000000E+00  0.00000000E+00
  0.00000000E+00  0.00000000E+00  0.00000000E+00
  0.00000000E+00  0.00000000E+00  0.00000000E+00
  0.00000000E+00  0.00000000E+00  0.00000000E+00
  0.00000000E+00  0.00000000E+00  0.00000000E+00
  0.00000000E+00  0.00000000E+00  0.00000000E+00
  0.00000000E+00  0.00000000E+00  0.00000000E+00
  0.00000000E+00  0.00000000E+00  0.00000000E+00
  0.00000000E+00  0.00000000E+00  0.00000000E+00
  0.00000000E+00  0.00000000E+00  0.00000000E+00
  0.00000000E+00  0.00000000E+00  0.00000000E+00
  0.00000000E+00  0.00000000E+00  0.00000000E+00
  0.00000000E+00  0.00000000E+00  0.00000000E+00
  0.00000000E+00  0.00000000E+00  0.00000000E+00
  0.00000000E+00  0.00000000E+00  0.00000000E+00
  0.00000000E+00  0.00000000E+00  0.00000000E+00
  0.00000000E+00  0.00000000E+00  0.00000000E+00
  0.00000000E+00  0.00000000E+00  0.00000000E+00
  0.00000000E+00  0.00000000E+00  0.00000000E+00
  0.00000000E+00  0.00000000E+00  0.00000000E+00
  0.00000000E+00  0.00000000E+00  0.00000000E+00
  0.00000000E+00  0.00000000E+00  0.00000000E+00
  0.00000000E+00  0.00000000E+00  0.00000000E+00
  0.00000000E+00  0.00000000E+00  0.00000000E+00
  0.00000000E+00  0.00000000E+00  0.00000000E+00
  0.00000000E+00  0.00000000E+00  0.00000000E+00
