Cr12 P6                                 
   1.00000000000000     
     0.0009271241831324   -0.0177404886676177    6.2253614138925704
     3.3981428677167633    5.3459579607476142   -3.1279830189348159
    -6.7985429411640022   -0.0005146765137135   -0.0015584492840607
   Cr   P 
    12     6
Direct
  0.3954084034995072 -0.0048214167952453 -0.0023347406353746
  0.4060948452889753 -0.0099001153051487  0.4945548009309493
  0.0243467635095139  0.4065032828500751  0.2029885243018321
  0.6240616570663378  0.5983088278374474  0.7989736648369516
  0.9854078759770125  0.4104633845260255  0.7058364658070071
  0.5833564127243426  0.5940993012890026  0.2975853668045166
  0.7475866581235334  0.0011315019292952  0.7804948809594716
  0.7477949695549589  0.0015073469668321  0.2206204843087785
  0.0001342869164433  0.7499554619912874  0.6044371016679680
  0.2528013350634841  0.2514699144107653  0.4030863249685161
  0.0008583575272317  0.7501318552951983  0.1458624086680753
  0.2525658715857261  0.2516502045585592  0.8485294090286583
  0.0302471538010143  0.0085255770904688  0.0041820210503800
  0.9511652559500419  0.0040484256602684  0.5020603377923518
  0.6626647588170930  0.3285748734498494  0.4075882006028443
  0.3353595048374260  0.6647588710320680  0.5900537962811191
  0.6622755858967031  0.3285337801468022  0.9208509067216667
  0.3361703038606766  0.6650589230664560  0.0746300459043026
 
  0.00000000E+00  0.00000000E+00  0.00000000E+00
  0.00000000E+00  0.00000000E+00  0.00000000E+00
  0.00000000E+00  0.00000000E+00  0.00000000E+00
  0.00000000E+00  0.00000000E+00  0.00000000E+00
  0.00000000E+00  0.00000000E+00  0.00000000E+00
  0.00000000E+00  0.00000000E+00  0.00000000E+00
  0.00000000E+00  0.00000000E+00  0.00000000E+00
  0.00000000E+00  0.00000000E+00  0.00000000E+00
  0.00000000E+00  0.00000000E+00  0.00000000E+00
  0.00000000E+00  0.00000000E+00  0.00000000E+00
  0.00000000E+00  0.00000000E+00  0.00000000E+00
  0.00000000E+00  0.00000000E+00  0.00000000E+00
  0.00000000E+00  0.00000000E+00  0.00000000E+00
  0.00000000E+00  0.00000000E+00  0.00000000E+00
  0.00000000E+00  0.00000000E+00  0.00000000E+00
  0.00000000E+00  0.00000000E+00  0.00000000E+00
  0.00000000E+00  0.00000000E+00  0.00000000E+00
  0.00000000E+00  0.00000000E+00  0.00000000E+00
