Ca1 V4 P6 O24                           
   1.00000000000000     
     2.5674600000000001    6.9931469999999996    4.4776699999999998
     0.2300290000000000    0.1520350000000000    8.7130849999999995
     7.4474890000000000    0.1255420000000000    4.5079060000000002
   Ca   V    P    O 
     1     4     6    24
Direct
  0.2695962841758193  0.7551754894171987  0.5563164206423731
  0.6571557993717835  0.6303062536182298  0.6395459987884037
  0.1403883669280766  0.1471966289271615  0.1392477703274368
  0.8371136980899226  0.8547503643748954  0.8611353035742213
  0.3554218277613680  0.3534852021443566  0.3648414794664130
  0.2533352977342346  0.5194072698421703  0.9702303238145535
  0.0197454703052589  0.7477401393072755  0.4564890603041802
  0.9730294628625119  0.2455427325759631  0.5248664273094058
  0.4576432349684139  0.0335800365487614  0.7509348401266206
  0.5433113349835976  0.9652292661233957  0.2462499847830129
  0.7445428492323849  0.4721704388711088  0.0379870267656129
  0.5771678583060442  0.7671925738411826  0.4182722959727185
  0.2932922061998398  0.0309201302028617  0.9425124947144150
  0.4184874599181306  0.5709824651469965  0.7810924967796401
  0.9388468415596201  0.3094911484639364  0.0342351409640820
  0.7785332062020499  0.3875794107510258  0.6043483340299175
  0.0343830996699121  0.9492925158627538  0.3101192499196777
  0.9938183225109313  0.0333002514484729  0.6608970517936071
  0.5793650265193622  0.4133607411890436  0.2166814276455555
  0.7145767157147985  0.9578865496347218  0.0601400650368241
  0.2261060578648081  0.5994254301696902  0.4155378396017003
  0.0695637328566781  0.6844660784327471  0.9256160404168655
  0.4132099992227906  0.2330296240929842  0.5937021202918976
  0.2620719793662131  0.3301281255390615  0.9871940851856922
  0.8782741669024585  0.7046368201418792  0.4502767602405664
  0.9933032456099402  0.2727810408814410  0.3276340614829293
  0.5066954453016773  0.8726774245586465  0.6941423350409506
  0.3570443316984388  0.9817530678441886  0.2469770026118285
  0.7153051836747240  0.5146453962154817  0.8570434059196685
  0.2691124265421690  0.5051617568966008  0.1402663672392420
 -0.0318378355992962  0.7393297419975762  0.6579982733443245
  0.1368644379859274  0.2851234780194837  0.5060822637742544
  0.6388647655265297  1.0091006941690486  0.7715351905953617
  0.5070359215520771  0.1242815530018117  0.2965372203379195
  0.7318297807182639  0.6540267080471436  0.0362345556675392
 
             NaN             NaN             NaN
             NaN             NaN             NaN
             NaN             NaN             NaN
             NaN             NaN             NaN
             NaN             NaN             NaN
             NaN             NaN             NaN
             NaN             NaN             NaN
             NaN             NaN             NaN
             NaN             NaN             NaN
             NaN             NaN             NaN
             NaN             NaN             NaN
             NaN             NaN             NaN
             NaN             NaN             NaN
             NaN             NaN             NaN
             NaN             NaN             NaN
             NaN             NaN             NaN
             NaN             NaN             NaN
             NaN             NaN             NaN
             NaN             NaN             NaN
             NaN             NaN             NaN
             NaN             NaN             NaN
             NaN             NaN             NaN
             NaN             NaN             NaN
             NaN             NaN             NaN
             NaN             NaN             NaN
             NaN             NaN             NaN
             NaN             NaN             NaN
             NaN             NaN             NaN
             NaN             NaN             NaN
             NaN             NaN             NaN
             NaN             NaN             NaN
             NaN             NaN             NaN
             NaN             NaN             NaN
             NaN             NaN             NaN
             NaN             NaN             NaN
