Ca1 V4 P6 O24
1.0
2.567460 6.993147 4.477670
0.230029 0.152035 8.713085
7.447489 0.125542 4.507906
Ca V P O
1 4 6 24
direct
0.377328 0.692775 0.543947 Ca
0.646587 0.642093 0.643936 V
0.135227 0.142395 0.143512 V
0.847552 0.850400 0.858462 V
0.354806 0.351347 0.353947 V
0.249852 0.526742 0.961497 P
0.034717 0.745612 0.467612 P
0.959467 0.251550 0.524991 P
0.459165 0.031137 0.747934 P
0.533873 0.967085 0.244060 P
0.746661 0.462943 0.039902 P
0.588616 0.772733 0.407370 O
0.303683 0.036762 0.940637 O
0.407363 0.576230 0.765240 O
0.937100 0.295389 0.029607 O
0.778968 0.415737 0.579472 O
0.047584 0.937355 0.300277 O
0.952274 0.059593 0.689424 O
0.586057 0.411186 0.228627 O
0.690760 0.966857 0.049986 O
0.216877 0.581328 0.412828 O
0.059956 0.699304 0.949211 O
0.420049 0.227574 0.586711 O
0.236224 0.344117 0.993563 O
0.859753 0.724460 0.498246 O
0.969087 0.259006 0.341563 O
0.472044 0.876867 0.703282 O
0.340793 -0.013206 0.261151 O
0.694579 0.513865 0.869283 O
0.292897 0.501009 0.122044 O
0.026276 0.740751 0.648435 O
0.137530 0.270432 0.496711 O
0.656503 0.981368 0.752398 O
0.508045 0.128972 0.286859 O
0.754348 0.638551 0.027169 O
