Ca1 Cr4 P6 O24                          
   1.00000000000000     
     2.6347710000000002    6.9415410000000000    4.4633310000000002
     0.3279330000000000    0.1594930000000000    8.6447190000000003
     7.4184270000000003    0.1710250000000000    4.4196879999999998
   Ca   Cr   P    O 
     1     4     6    24
Direct
  0.2680621996790246  0.7658219373817929  0.5533918341096773
  0.6544758572806029  0.6325607781151175  0.6367010249596644
  0.1374229576952988  0.1539581167802469  0.1370962600142872
  0.8406268993108388  0.8495799818365417  0.8591700830655752
  0.3586369143938065  0.3479896178314348  0.3668847385536921
  0.2538878719556913  0.5183380485061730  0.9693202395476573
  0.0218737978655148  0.7447930904201433  0.4622969573753202
  0.9720967955899306  0.2489686702732497  0.5206244833532148
  0.4565507057874534  0.0266360816118048  0.7542142985750575
  0.5469905097835324  0.9688172538464949  0.2406253485954830
  0.7435628247825961  0.4711308911365318  0.0397306423118994
  0.5822880580198410  0.7651910058716135  0.4084243798535447
  0.2930822484983761  0.0185254679491060  0.9518328076777508
  0.4204265403188308  0.5711003659772098  0.7772952905259262
  0.9403702674126564  0.3000143323458832  0.0372761964498055
  0.7751315786647240  0.3929744980303494  0.6050835226366021
  0.0324304516601640  0.9511636394121359  0.3315866868102400
  0.9860063530370726  0.0353563692842451  0.6546412793178944
  0.5810552938065551  0.4107316141948347  0.2262755208240893
  0.7140410018950167  0.9669986429900453  0.0449361557507504
  0.2293790801610498  0.5979277798460770  0.4096211494072226
  0.0701511084103693  0.6931172068878545  0.9323332897700793
  0.4044571539486362  0.2307217674692051  0.5973052840437002
  0.2605124896355974  0.3355749364861625  0.9712268197725044
  0.8737638847789475  0.7136624048728439  0.4530353692039185
  0.9898157755680481  0.2908040712393731  0.3174978079042625
  0.4987894638520494  0.8699524332842721  0.6916778112779497
  0.3530952062439223  0.9981702615781594  0.2434711396946570
  0.7130516127915377  0.5166196194307996  0.8600893030620443
  0.2806857386902963  0.4875526471021565  0.1428659811882078
 -0.0225040392482032  0.7181602610666856  0.6737299263056556
  0.1375972715227033  0.2770316350010860  0.5096478437710957
  0.6422109899532945  0.0031945457169354  0.7620921140554131
  0.5229200348563708  0.1199232298690131  0.2956081331250881
  0.7370313507190825  0.6491075135862483  0.0421277886270890
 
             NaN             NaN             NaN
             NaN             NaN             NaN
             NaN             NaN             NaN
             NaN             NaN             NaN
             NaN             NaN             NaN
             NaN             NaN             NaN
             NaN             NaN             NaN
             NaN             NaN             NaN
             NaN             NaN             NaN
             NaN             NaN             NaN
             NaN             NaN             NaN
             NaN             NaN             NaN
             NaN             NaN             NaN
             NaN             NaN             NaN
             NaN             NaN             NaN
             NaN             NaN             NaN
             NaN             NaN             NaN
             NaN             NaN             NaN
             NaN             NaN             NaN
             NaN             NaN             NaN
             NaN             NaN             NaN
             NaN             NaN             NaN
             NaN             NaN             NaN
             NaN             NaN             NaN
             NaN             NaN             NaN
             NaN             NaN             NaN
             NaN             NaN             NaN
             NaN             NaN             NaN
             NaN             NaN             NaN
             NaN             NaN             NaN
             NaN             NaN             NaN
             NaN             NaN             NaN
             NaN             NaN             NaN
             NaN             NaN             NaN
             NaN             NaN             NaN
