Ca1 Cr4 P6 O24
1.0
2.634771 6.941541 4.463331
0.327933 0.159493 8.644719
7.418427 0.171025 4.419688
Ca Cr P O
1 4 6 24
direct
0.364055 0.692183 0.563114 Ca
0.645022 0.639277 0.645449 Cr
0.140203 0.142197 0.142247 Cr
0.852240 0.849625 0.852278 Cr
0.356951 0.351772 0.352831 Cr
0.247442 0.528819 0.963941 P
0.034715 0.747191 0.465830 P
0.958861 0.252250 0.524175 P
0.465382 0.030045 0.747809 P
0.532558 0.968097 0.243710 P
0.748101 0.459702 0.036019 P
0.587240 0.772807 0.407448 O
0.311131 0.031345 0.949110 O
0.404136 0.587158 0.764497 O
0.943756 0.296416 0.029256 O
0.771497 0.414074 0.577399 O
0.036336 0.940687 0.298308 O
0.954763 0.055076 0.688826 O
0.589389 0.413588 0.234086 O
0.686259 0.966078 0.046488 O
0.222135 0.583047 0.408880 O
0.055155 0.699300 0.961649 O
0.404647 0.227400 0.590178 O
0.244406 0.346989 0.982746 O
0.861520 0.712077 0.509079 O
0.976131 0.255732 0.337169 O
0.477276 0.869650 0.711942 O
0.332875 0.990157 0.268351 O
0.695870 0.488707 0.876579 O
0.296992 0.496315 0.125593 O
0.034285 0.741637 0.645625 O
0.134181 0.271128 0.498527 O
0.661292 0.000978 0.732051 O
0.513700 0.130830 0.282844 O
0.755951 0.647116 0.003185 O
