Ca4 V4 P6 O24                           
   1.00000000000000     
     2.5604740000000001    7.2586729999999999    4.3491650000000002
    -0.0048440000000000    0.0341650000000000    8.7871939999999995
     7.6671579999999997    0.0355570000000000    4.2904020000000003
   Ca   V    P    O 
     4     4     6    24
Direct
  0.2981358450765800  0.7498438842320473  0.5554994925894499
  0.9695215995585422  0.0029309102521402  0.0109107696126004
  0.4067988281522638  0.7437160367061866  0.0898524087250872
  0.1142595910175441  0.3859797605064901  0.7507184758384533
  0.6613680756516424  0.6224972447349391  0.6385031142419254
  0.1505600194066752  0.1422260619323092  0.1517841496341461
  0.8428962696890082  0.8630403667470473  0.8508454013493013
  0.3496270847727323  0.3489836999265044  0.3543863183484747
  0.2462569424566615  0.5484929333710561  0.9549660984551366
  0.0353702555536433  0.7520126758697915  0.4445000282285563
  0.9588394763255320  0.2483105688052861  0.5524063546909147
  0.4561014478525545  0.0382299879996028  0.7437994840381711
  0.5423646244610502  0.9483468496204048  0.2489971286640843
  0.7545196492956603  0.4503947482183641  0.0387749939646007
  0.5716609204182171  0.7828432879150499  0.4206189067393746
  0.2616634433208157  0.0649376287306869  0.9073064053555041
  0.4212674047105134  0.5568776087272249  0.7836769715806587
  0.9212483085484521  0.2730050650866949  0.0690053724994334
  0.7781270672105431  0.4094203079416833  0.5591885023740452
  0.0775347665036537  0.9021957339333826  0.2567160933000841
  0.9307578072136826  0.0860774482448483  0.7358672106290141
  0.5764563044416058  0.4337320257203320  0.1976603041676762
  0.7251891390396757  0.9314479538157550  0.0855006448903716
  0.2310412109289008  0.5919229838681599  0.4349063901169165
  0.0963122389168636  0.7378075814219127  0.9011967362452686
  0.4265597110249725  0.2143661037409598  0.5859606473207702
  0.1952879596726496  0.3939390169406061  0.9801247127759282
  0.8861152545499689  0.6993282801354586  0.4722551388315179
  0.0305353169255518  0.1797039898868182  0.3935675308919676
  0.4933586614950802  0.8543097609220767  0.7301589145936338
  0.3928971228717293  0.9282291846735760  0.2219060163359955
  0.7608609920938216  0.4685884124582578  0.8516900564143840
  0.2700946292826944  0.5365319888627099  0.1223623964207244
  0.0009344410119197  0.7938847691067646  0.6091665584422093
  0.1066920429507822  0.3024077595931559  0.5428435849577971
  0.5980705439422999  1.0083680959140582  0.8139518378947525
  0.4732014102066330  0.1287830976150332  0.2770078332369300
  0.7720704267285363  0.6263377061887446  0.0110179421409305
 
             NaN             NaN             NaN
             NaN             NaN             NaN
             NaN             NaN             NaN
             NaN             NaN             NaN
             NaN             NaN             NaN
             NaN             NaN             NaN
             NaN             NaN             NaN
             NaN             NaN             NaN
             NaN             NaN             NaN
             NaN             NaN             NaN
             NaN             NaN             NaN
             NaN             NaN             NaN
             NaN             NaN             NaN
             NaN             NaN             NaN
             NaN             NaN             NaN
             NaN             NaN             NaN
             NaN             NaN             NaN
             NaN             NaN             NaN
             NaN             NaN             NaN
             NaN             NaN             NaN
             NaN             NaN             NaN
             NaN             NaN             NaN
             NaN             NaN             NaN
             NaN             NaN             NaN
             NaN             NaN             NaN
             NaN             NaN             NaN
             NaN             NaN             NaN
             NaN             NaN             NaN
             NaN             NaN             NaN
             NaN             NaN             NaN
             NaN             NaN             NaN
             NaN             NaN             NaN
             NaN             NaN             NaN
             NaN             NaN             NaN
             NaN             NaN             NaN
             NaN             NaN             NaN
             NaN             NaN             NaN
             NaN             NaN             NaN
