Ca4 V16 P24 O96                         
   1.00000000000000     
    -4.5262130000000003    6.9364350000000004    8.6876370000000005
     5.0819330000000003   -6.5854990000000004    8.7369029999999999
     9.7511630000000000    6.9321070000000002    0.3309230000000000
   Ca   V    P    O 
     4    16    24    96
Direct
  0.5030371799640551  0.5139841403915812  0.4772094060883486
  0.5071871919732980  0.9919430070991475  0.9936992246518224
  0.0028980429148417  0.9969654870947732  0.4953856284427445
  0.0073338129737405  0.4879469395183234  0.9975144451190082
  0.6458067283473852  0.6438862582464154  0.6438648547980826
  0.6433483862609545  0.1442900388791782  0.1445445113709436
  0.1453893891595152  0.1471093675572639  0.6419705566878913
  0.1422803288533292  0.6474554836831719  0.1424365667499814
  0.1386969378126508  0.1456320681399917  0.1411548859960460
  0.1389156332123622  0.6432947995975501  0.6414327441271095
  0.6395488057786386  0.6429374196171862  0.1406865704017942
  0.6389712428752031  0.1426860476823179  0.6412402547180226
  0.8522255370314472  0.8544684580704847  0.8553638320056152
  0.8534103490249396  0.3539615786722483  0.3554966952082994
  0.3524386376437737  0.3552160991519794  0.8551434086497743
  0.3532115784498581  0.8542133546400339  0.3546160626812913
  0.3511422846209282  0.3516816161961796  0.3518272609839376
  0.3482858162638132  0.8524492792325413  0.8528365339016742
  0.8516630638415771  0.8518332634027435  0.3511588077129574
  0.8477965411864381  0.3521347270201942  0.8525590507993932
  0.3878255538710576  0.7450818432612103  0.6058878425997155
  0.3889674555411945  0.2440718866322236  0.1042461985695353
  0.8871305278999150  0.2434674742900960  0.6053822819263714
  0.8884077078841857  0.7444241621187179  0.1049645611164249
  0.3895834423606822  0.6082916911955651  0.2469689874964621
  0.3899479667392210  0.1075390655105241  0.7528998588490957
  0.8903143048988321  0.1073262481053751  0.2531111737269371
  0.8904189038506078  0.6065222744945868  0.7539776239260790
  0.6048865630091119  0.3907276973370690  0.7430319721054635
  0.6055297989693563  0.8887231621338126  0.2438657215430473
  0.1041245396966636  0.8905424538378245  0.7431539271017031
  0.1042098405656916  0.3904528458404720  0.2440892854363142
  0.2491895560462090  0.3920535873339525  0.6045742241165509
  0.2474710997222369  0.8918176281260042  0.1068719720194281
  0.7471209326817646  0.8902329946618284  0.6050025077846747
  0.7497606774179710  0.3889891747607399  0.1078128632852481
  0.7477474246789209  0.6054429371955374  0.3871746768887857
  0.7461894562783175  0.1044928006666317  0.8889537228385667
  0.2483314602094143  0.1067024378738401  0.3883902954932031
  0.2456960520039894  0.6061390064353124  0.8885222359300192
  0.6065288371372114  0.2545215525229921  0.3898969692332562
  0.6061708587774856  0.7515206505041916  0.8914923795720499
  0.1075325257869251  0.7524711653648205  0.3906226428269532
  0.1062726325682558  0.2515530348420553  0.8908740848104836
  0.6826508055420746  0.5803129060746044  0.4987957764993871
  0.6797702252324518  0.0795707530243095  1.0002671253526823
  0.1799962736523771  0.0806783123992117  0.4983956826610421
  0.1775398676801178  0.5804508215576473  0.9984870007458185
  0.1653494768807903  0.4866942288817168  0.6272962083211177
  0.1667875538434964  0.9878658805740914  0.1323023456373275
  0.6627533092079161  0.9851273470484643  0.6238850257999642
  0.6694143813758292  0.4856144957046074  0.1334850779382182
  0.4959038169502688  0.6774093100553097  0.5785720405788199
  0.4943574945193834  0.1725583732093006  0.0766780113690645
  0.9953597679419975  0.1765302023613834  0.5771984971268241
  0.9939384770556909  0.6734261453281880  0.0764123192924700
  0.6291117726115463  0.1683260827069862  0.4827287011310851
  0.6294552244402323  0.6625891862501411  0.9821431733646626
  0.1316503636704968  0.6650373463020627  0.4820291176371962
  0.1286602877044624  0.1627617475700412  0.9815316662149525
  0.5803731120407778  0.4998243689095839  0.6755495605331769
  0.5786041802281432  0.9991359484214662  0.1795837029800665
  0.0790285723920697  1.0010302301925467  0.6784145686486226
  0.0786727592945803  0.5016307544866615  0.1808623848718416
  0.4882774820943870  0.6343296514981420  0.1647279123388940
  0.4885449456816289  0.1328968486158786  0.6698049022755390
  0.9883347444565187  0.1328702836650935  0.1696093487713231
  0.9881513892721797  0.6328231344553196  0.6699989548985358
  0.5104651792139712  0.3666433021704268  0.8266603977836476
  0.5122801941073779  0.8618422497084642  0.3280523272438679
  0.0101577314982157  0.8640631688821918  0.8266818231019027
  0.0122152644070765  0.3642226416026234  0.3298922331561782
  0.4968912709388551  0.3219069199714908  0.4137142359684797
  0.4938901215458545  0.8143190727792915  0.9161470851435344
  0.9964819876547161  0.8166839146468314  0.4159350712121677
  0.9936991938571486  0.3135175019369656  0.9146332597836409
  0.8326865725755507  0.5117466666273847  0.3615797367594675
  0.8331923043242870  0.0118726330268562  0.8663676913289244
  0.3323754971455918  0.0116749906561586  0.3642679487677788
  0.3312359707081214  0.5124916712036792  0.8650872786719213
  0.4168724472556484  0.4970003539160214  0.3081800446158460
  0.4179773144046137  0.9984118797001870  0.8180605099385307
  0.9189859164880070  0.9975816170160610  0.3171139833514087
  0.9197343244722437  0.4979611508834361  0.8194401927049896
  0.3648917345332326  0.8273431232254986  0.5069258258544967
  0.3675389769854585  0.3293466074836870  0.0075929662463474
  0.8628223412034565  0.3275212279474484  0.5080691717414341
  0.8652378171374264  0.8285537728254347  0.0082040966061772
  0.3231438042322513  0.4199859556101198  0.4994889265078891
  0.3205288257175883  0.9181977107140940  0.0008913130388333
  0.8225695279964521  0.9157803066255176  0.5005662610044644
  0.8216638856210882  0.4158978622692687  0.0011408774239500
  0.2964619306140047  0.6616171657946794  0.6227195525366699
  0.2940796399840042  0.1643756541428835  0.1201358935059814
  0.7966302215403863  0.1585507303525470  0.6217802426350835
  0.7954524477024811  0.6626504351250516  0.1244163285010841
  0.7887336285496810  0.5934248158331629  0.6853468949174703
  0.7876484361149378  0.0969379923902284  0.1858982506828004
  0.2884892203614137  0.0964272236213255  0.6837000702272804
  0.2875388609340337  0.6005613303615233  0.1787228492861944
  0.6265058216116955  0.3025401397966269  0.6568841265110579
  0.6237070841668171  0.8043785193665044  0.1527696944841875
  0.1230669513511352  0.8050676881664908  0.6531967646351379
  0.1188823715802157  0.3072179004209295  0.1512003660350032
  0.6863645438382631  0.7843539825019598  0.5890441688449912
  0.6835843383458531  0.2866692145859221  0.0922563700280216
  0.1859764683127151  0.2878073483664991  0.5869869240165555
  0.1810993775265448  0.7895924864914662  0.0900997033643454
  0.6560040071394491  0.6223858035207918  0.3033744976809654
  0.6582001477504503  0.1182846101946235  0.8016043341115150
  0.1610230836473229  0.1281464604463178  0.3012407388962940
  0.1586368843839668  0.6242676600320752  0.8006922186536594
  0.5991214134541958  0.6915953737105428  0.7817249546946882
  0.5962935677100575  0.1905590162691582  0.2823552681237649
  0.1001098587463867  0.1927589183386079  0.7799898749342090
  0.0981140617057242  0.6909360347877860  0.2817034330138438
  0.4028009183916159  0.3072534757452147  0.2088578613979601
  0.3995244025152269  0.8116130117453800  0.7087008796905331
  0.9040989319342265  0.8099908781391489  0.2079811801749149
  0.8985292990900817  0.3092874570061879  0.7087595028136587
  0.3741073239982614  0.6917790036773325  0.3381442526018847
  0.3707571320529710  0.1952643042478962  0.8389872820391703
  0.8731588543211964  0.1933947116590419  0.3411695312777918
  0.8694126653905342  0.6949039906999843  0.8391581963579340
  0.2127947302069815  0.3982382890034225  0.3068409995303411
  0.2104707494930979  0.9014142161663372  0.8092941063112645
  0.7128309900973476  0.8998654231207932  0.3079824767172819
  0.7108794410992839  0.4035455171034643  0.8099541703310295
  0.8272497155016275  0.8716264828136672  0.7013133133278595
  0.8351815625599255  0.3664303710615353  0.1992351211740303
  0.3289959588992807  0.3703153109816951  0.7006946673779281
  0.3316508996719703  0.8681026886942770  0.1995543449167819
  0.3134025924910167  0.2103894097304787  0.4032155036586001
  0.3081055296872013  0.7115017075431912  0.9019663303890452
  0.8115830495631231  0.7103507520997721  0.3978459832589157
  0.8064740847601575  0.2113093120612694  0.9003578105375640
  0.6928082666366355  0.3426858422914328  0.3732380677178176
  0.6898900848390936  0.8428864347297611  0.8810376965262033
  0.1923642390035516  0.8421906768572602  0.3757907939181673
  0.1902334748136369  0.3426517957011749  0.8810868284014293
 
             NaN             NaN             NaN
             NaN             NaN             NaN
             NaN             NaN             NaN
             NaN             NaN             NaN
             NaN             NaN             NaN
             NaN             NaN             NaN
             NaN             NaN             NaN
             NaN             NaN             NaN
             NaN             NaN             NaN
             NaN             NaN             NaN
             NaN             NaN             NaN
             NaN             NaN             NaN
             NaN             NaN             NaN
             NaN             NaN             NaN
             NaN             NaN             NaN
             NaN             NaN             NaN
             NaN             NaN             NaN
             NaN             NaN             NaN
             NaN             NaN             NaN
             NaN             NaN             NaN
             NaN             NaN             NaN
             NaN             NaN             NaN
             NaN             NaN             NaN
             NaN             NaN             NaN
             NaN             NaN             NaN
             NaN             NaN             NaN
             NaN             NaN             NaN
             NaN             NaN             NaN
             NaN             NaN             NaN
             NaN             NaN             NaN
             NaN             NaN             NaN
             NaN             NaN             NaN
             NaN             NaN             NaN
             NaN             NaN             NaN
             NaN             NaN             NaN
             NaN             NaN             NaN
             NaN             NaN             NaN
             NaN             NaN             NaN
             NaN             NaN             NaN
             NaN             NaN             NaN
             NaN             NaN             NaN
             NaN             NaN             NaN
             NaN             NaN             NaN
             NaN             NaN             NaN
             NaN             NaN             NaN
             NaN             NaN             NaN
             NaN             NaN             NaN
             NaN             NaN             NaN
             NaN             NaN             NaN
             NaN             NaN             NaN
             NaN             NaN             NaN
             NaN             NaN             NaN
             NaN             NaN             NaN
             NaN             NaN             NaN
             NaN             NaN             NaN
             NaN             NaN             NaN
             NaN             NaN             NaN
             NaN             NaN             NaN
             NaN             NaN             NaN
             NaN             NaN             NaN
             NaN             NaN             NaN
             NaN             NaN             NaN
             NaN             NaN             NaN
             NaN             NaN             NaN
             NaN             NaN             NaN
             NaN             NaN             NaN
             NaN             NaN             NaN
             NaN             NaN             NaN
             NaN             NaN             NaN
             NaN             NaN             NaN
             NaN             NaN             NaN
             NaN             NaN             NaN
             NaN             NaN             NaN
             NaN             NaN             NaN
             NaN             NaN             NaN
             NaN             NaN             NaN
             NaN             NaN             NaN
             NaN             NaN             NaN
             NaN             NaN             NaN
             NaN             NaN             NaN
             NaN             NaN             NaN
             NaN             NaN             NaN
             NaN             NaN             NaN
             NaN             NaN             NaN
             NaN             NaN             NaN
             NaN             NaN             NaN
             NaN             NaN             NaN
             NaN             NaN             NaN
             NaN             NaN             NaN
             NaN             NaN             NaN
             NaN             NaN             NaN
             NaN             NaN             NaN
             NaN             NaN             NaN
             NaN             NaN             NaN
             NaN             NaN             NaN
             NaN             NaN             NaN
             NaN             NaN             NaN
             NaN             NaN             NaN
             NaN             NaN             NaN
             NaN             NaN             NaN
             NaN             NaN             NaN
             NaN             NaN             NaN
             NaN             NaN             NaN
             NaN             NaN             NaN
             NaN             NaN             NaN
             NaN             NaN             NaN
             NaN             NaN             NaN
             NaN             NaN             NaN
             NaN             NaN             NaN
             NaN             NaN             NaN
             NaN             NaN             NaN
             NaN             NaN             NaN
             NaN             NaN             NaN
             NaN             NaN             NaN
             NaN             NaN             NaN
             NaN             NaN             NaN
             NaN             NaN             NaN
             NaN             NaN             NaN
             NaN             NaN             NaN
             NaN             NaN             NaN
             NaN             NaN             NaN
             NaN             NaN             NaN
             NaN             NaN             NaN
             NaN             NaN             NaN
             NaN             NaN             NaN
             NaN             NaN             NaN
             NaN             NaN             NaN
             NaN             NaN             NaN
             NaN             NaN             NaN
             NaN             NaN             NaN
             NaN             NaN             NaN
             NaN             NaN             NaN
             NaN             NaN             NaN
             NaN             NaN             NaN
             NaN             NaN             NaN
             NaN             NaN             NaN
             NaN             NaN             NaN
             NaN             NaN             NaN
             NaN             NaN             NaN
             NaN             NaN             NaN
