Ca4 V16 P24 O96
1.0
-4.526213 6.936435 8.687637
5.081933 -6.585499 8.736903
9.751163 6.932107 0.330923
Ca V P O
4 16 24 96
direct
0.514041 0.523584 0.485130 Ca
0.506769 0.993496 0.991864 Ca
1.005186 -0.006101 0.493250 Ca
0.007981 0.491680 0.993235 Ca
0.643868 0.641938 0.644141 V
0.644203 0.144149 0.142843 V
0.144114 0.144057 0.643061 V
0.144021 0.644103 0.143159 V
0.138918 0.142744 0.141124 V
0.138487 0.642336 0.641321 V
0.638996 0.642228 0.140628 V
0.638699 0.142127 0.641206 V
0.852322 0.854002 0.855423 V
0.852963 0.353208 0.355354 V
0.352325 0.353955 0.855434 V
0.351805 0.854982 0.354658 V
0.350299 0.352329 0.352702 V
0.348820 0.851623 0.852191 V
0.850144 0.851017 0.351841 V
0.849565 0.351629 0.852149 V
0.387530 0.742718 0.605961 P
0.388042 0.243400 0.105862 P
0.887504 0.242892 0.605773 P
0.888272 0.743201 0.105270 P
0.390341 0.606703 0.252312 P
0.389560 0.106565 0.752214 P
0.889958 0.106303 0.252183 P
0.889761 0.606545 0.753061 P
0.604738 0.388519 0.745027 P
0.604388 0.889595 0.243060 P
0.104109 0.889313 0.743944 P
0.104668 0.389108 0.244396 P
0.248071 0.389716 0.606330 P
0.247475 0.889961 0.105861 P
0.747245 0.889126 0.605937 P
0.748864 0.389529 0.106389 P
0.746957 0.603963 0.387964 P
0.746215 0.104482 0.887621 P
0.245303 0.105294 0.388019 P
0.246318 0.604532 0.888037 P
0.606712 0.251297 0.390360 P
0.606639 0.752040 0.891066 P
0.106338 0.750644 0.391018 P
0.106819 0.251436 0.890729 P
0.680679 0.579597 0.499208 O
0.680298 0.079165 0.999109 O
0.179191 0.078826 0.499037 O
0.180514 0.578626 0.999481 O
0.165296 0.485096 0.628792 O
0.164776 0.985426 0.128117 O
0.664646 0.984984 0.627461 O
0.666561 0.485282 0.128841 O
0.494178 0.672918 0.579147 O
0.494379 0.173691 0.076963 O
0.994359 0.173945 0.577409 O
0.994317 0.672912 0.077079 O
0.630703 0.164124 0.482124 O
0.630505 0.663677 0.981883 O
0.128847 0.662780 0.482314 O
0.131536 0.164131 0.982267 O
0.579059 0.499035 0.680201 O
0.578852 0.999327 0.177531 O
0.077851 -0.000534 0.678810 O
0.078727 0.499391 0.179344 O
0.488516 0.631080 0.168529 O
0.487850 0.132987 0.668998 O
0.987972 0.132135 0.168754 O
0.987880 0.633084 0.669749 O
0.511342 0.362762 0.829149 O
0.511032 0.865523 0.328228 O
0.010879 0.863120 0.828339 O
0.011703 0.363297 0.329297 O
0.494386 0.313626 0.414569 O
0.494224 0.814316 0.915628 O
-0.004676 0.815029 0.415564 O
0.994357 0.313562 0.915614 O
0.832817 0.510919 0.364189 O
0.832622 0.011489 0.864065 O
0.330887 0.010982 0.364634 O
0.332831 0.511642 0.864376 O
0.417648 0.497771 0.317287 O
0.418551 0.997217 0.816607 O
0.918124 0.996804 0.316840 O
0.919123 0.497317 0.817492 O
0.366315 0.825864 0.507855 O
0.363554 0.326467 0.007903 O
0.863217 0.326145 0.508005 O
0.864870 0.827005 0.007966 O
0.321395 0.415613 0.500818 O
0.321521 0.916534 1.000615 O
0.821976 0.915433 0.501042 O
0.822891 0.416030 0.001162 O
0.294477 0.661151 0.623468 O
0.295271 0.161299 0.125191 O
0.795488 0.160012 0.624558 O
0.794987 0.661868 0.124102 O
0.788246 0.594725 0.684221 O
0.788026 0.095307 0.183942 O
0.288020 0.094807 0.683339 O
0.288050 0.596777 0.184463 O
0.624063 0.303546 0.655025 O
0.621159 0.803646 0.153795 O
0.122862 0.804109 0.653876 O
0.121896 0.304221 0.153796 O
0.683639 0.785324 0.589060 O
0.684796 0.285967 0.090067 O
0.184133 0.285538 0.590671 O
0.183860 0.785859 0.089810 O
0.657633 0.621359 0.302178 O
0.656713 0.119544 0.801906 O
0.156359 0.120902 0.301905 O
0.157217 0.620419 0.802120 O
0.600057 0.692097 0.781223 O
0.598860 0.189892 0.281103 O
0.099126 0.190366 0.781698 O
0.098116 0.690560 0.281392 O
0.402133 0.309728 0.208367 O
0.400328 0.809027 0.708845 O
0.902270 0.809040 0.208372 O
0.900887 0.309490 0.708419 O
0.373606 0.694826 0.338094 O
0.369953 0.193467 0.839066 O
0.871473 0.193001 0.339385 O
0.869776 0.693639 0.839638 O
0.212150 0.400232 0.308117 O
0.211067 0.901456 0.808643 O
0.711174 0.899752 0.308066 O
0.711616 0.401200 0.809768 O
0.828703 0.868299 0.701021 O
0.831346 0.368374 0.200676 O
0.330171 0.368709 0.700888 O
0.329994 0.869197 0.200053 O
0.307670 0.210339 0.399545 O
0.307594 0.710807 0.899901 O
0.808914 0.710229 0.399148 O
0.807667 0.210555 0.898922 O
0.690670 0.341918 0.377225 O
0.690087 0.843430 0.880235 O
0.191549 0.840049 0.379187 O
0.189818 0.343329 0.878575 O
