Ca1 Mn4 P6 O24                          
   1.00000000000000     
     2.8562840000000000    7.0560580000000002    3.8593620000000000
     0.9992610000000000    0.5468400000000000    8.4280460000000001
     7.6339280000000000    0.3043390000000000    3.7085789999999998
   Ca   Mn   P    O 
     1     4     6    24
Direct
  0.2611033180662284  0.7992889284932195  0.5546774072798621
  0.6434408156965831  0.6440994726098906  0.6399329542314566
  0.1370378830771370  0.1554925211271624  0.1354929710371323
  0.8460949183670375  0.8420632435877373  0.8597738832888143
  0.3627383161858731  0.3436899607864496  0.3650752327515946
  0.2565831814675648  0.5187942857744723  0.9611372746792440
  0.0187483585637749  0.7442906240010089  0.4711451816920286
  0.9714264894066854  0.2531705688238964  0.5153081136967353
  0.4467827563594386  0.0238659098681899  0.7584582970100512
  0.5550414850345700  0.9749702836139765  0.2329901538977060
  0.7418333761774493  0.4669265755656754  0.0491641416539320
  0.5872588490434205  0.7639424949636836  0.3991089379544110
  0.2896024003337642  0.0118888514503505  0.9631692461773511
  0.4312281728453146  0.5563901451338867  0.7671106623372117
  0.9328488047107646  0.2830701939158415  0.0396140169575030
  0.7877701528787384  0.4049734496642721  0.5984545304858592
  0.0411995792601196  0.9468796345204421  0.3444661216575518
  0.9662600675265144  0.0420848809002998  0.6531876822291054
  0.5766311851949858  0.4228590141057288  0.2425274614120775
  0.7148809039301536  0.9777369639150341  0.0333403885467907
  0.2147609221256622  0.5895745201017591  0.4035984123760623
  0.0808777959288312  0.7152818604625968  0.9254575812378775
  0.3988079825262473  0.2348628069559021  0.6044142788406234
  0.2388374026228152  0.3528503511973986  0.9543534677831909
  0.8442775552065078  0.7428797612351491  0.4699295475739316
  0.9847667321339488  0.2981512070238144  0.3085632449849697
  0.4569761628101030  0.8783636404552887  0.6955220885359641
  0.3517257515855837  0.0205053695216286  0.2376548883296456
  0.6917633866334509  0.5346435143004857  0.8700755081122292
  0.2959214524012113  0.4715611435886999  0.1361765487313530
 -0.0008362423555277  0.6982550270537423  0.6834442563708988
  0.1576820295158825  0.2463242930979035  0.5084332120135383
  0.6478984304585140  0.9739206863401355  0.7580347594615441
  0.5454090616249474  0.1197402921503176  0.2923208767371895
  0.7621903528426176  0.6363859344040257  0.0499053844669590
 
             NaN             NaN             NaN
             NaN             NaN             NaN
             NaN             NaN             NaN
             NaN             NaN             NaN
             NaN             NaN             NaN
             NaN             NaN             NaN
             NaN             NaN             NaN
             NaN             NaN             NaN
             NaN             NaN             NaN
             NaN             NaN             NaN
             NaN             NaN             NaN
             NaN             NaN             NaN
             NaN             NaN             NaN
             NaN             NaN             NaN
             NaN             NaN             NaN
             NaN             NaN             NaN
             NaN             NaN             NaN
             NaN             NaN             NaN
             NaN             NaN             NaN
             NaN             NaN             NaN
             NaN             NaN             NaN
             NaN             NaN             NaN
             NaN             NaN             NaN
             NaN             NaN             NaN
             NaN             NaN             NaN
             NaN             NaN             NaN
             NaN             NaN             NaN
             NaN             NaN             NaN
             NaN             NaN             NaN
             NaN             NaN             NaN
             NaN             NaN             NaN
             NaN             NaN             NaN
             NaN             NaN             NaN
             NaN             NaN             NaN
             NaN             NaN             NaN
