Ca1 Mn4 P6 O24
1.0
2.856284 7.056058 3.859362
0.999261 0.546840 8.428046
7.633928 0.304339 3.708579
Ca Mn P O
1 4 6 24
direct
0.311983 0.760713 0.550181 Ca
0.642450 0.651960 0.640249 Mn
0.135629 0.156031 0.137238 Mn
0.848384 0.842087 0.860449 Mn
0.359403 0.343260 0.359610 Mn
0.255074 0.523110 0.954795 P
0.020417 0.746448 0.474342 P
0.969298 0.253928 0.518388 P
0.446893 0.027447 0.758133 P
0.551877 0.975078 0.232593 P
0.738404 0.468229 0.049767 P
0.589440 0.768160 0.398905 O
0.282695 0.024847 0.956208 O
0.423771 0.567966 0.757984 O
0.923862 0.282878 0.052626 O
0.803403 0.421590 0.585008 O
0.058871 0.936690 0.333540 O
0.946905 0.054437 0.665781 O
0.565008 0.436005 0.238441 O
0.715129 0.973799 0.036691 O
0.185978 0.573957 0.414564 O
0.073559 0.713019 0.936676 O
0.405409 0.233110 0.596992 O
0.233911 0.357151 0.955165 O
0.829975 0.766008 0.488695 O
0.979703 0.292460 0.315693 O
0.454869 0.876868 0.703110 O
0.353061 1.016915 0.234826 O
0.694729 0.526534 0.871410 O
0.299749 0.471274 0.127928 O
0.014766 0.706762 0.677560 O
0.163491 0.229715 0.504969 O
0.642612 -0.025918 0.766894 O
0.541486 0.124441 0.287763 O
0.763173 0.635612 0.044565 O
