Ca1 Fe4 P6 O24                          
   1.00000000000000     
     2.7209337741145783    6.9254637263920955    4.6576341399133838
     0.4071398002208652    0.2887801836398801    8.7641384624422702
     7.4352040939865915    0.2895680900772450    4.6572759575032636
   Ca   Fe   P    O 
     1     4     6    24
Direct
  0.4975535712547838  0.4975355598003262  0.4975492542405107
  0.6433652042471962  0.6433680896636247  0.6433573031580693
  0.1476281394785914  0.1477313036830381  0.1476466999973383
  0.8473398521358462  0.8471746804743887  0.8473625233133077
  0.3515660093712398  0.3515481183240752  0.3515739820613675
  0.2401661907086208  0.5353698027065192  0.9615354099258155
  0.0334201497767523  0.7551910355766367  0.4592427742687377
  0.9615435653317235  0.2401389288660383  0.5353767040058557
  0.4592564659231755  0.0333999721409199  0.7551996448949438
  0.5353732815506405  0.9615550332078726  0.2401363937537795
  0.7551712366951620  0.4592452577227135  0.0334158723720748
  0.6098990905425552  0.7508539828245162  0.3828165834384265
  0.3181187404633974  0.0043089402782357  0.9715377659534354
  0.3828356577522385  0.6099174252080246  0.7508347485674278
  0.9715146708276876  0.3181602190712667  0.0042770503736804
  0.7508524364187110  0.3828287330554261  0.6099177804975042
  0.0042859723965449  0.9715521247952239  0.3181525841880273
  0.9902216246038122  0.0240010225924294  0.6766476982076242
  0.6126481152593257  0.3844970318077046  0.2441740184394163
  0.6766747984009811  0.9902199318643383  0.0240007336059804
  0.2441695665054837  0.6126733978246008  0.3844903451764878
  0.0240438714030020  0.6766516678179286  0.9902369519238050
  0.3845169473515000  0.2441537032284984  0.6126546019828396
  0.2811209176173932  0.3315266318654366  0.9742861612005527
  0.8792108238872700  0.7089987585915338  0.4815695420136237
  0.9743015672729314  0.2811775788673998  0.3314868054454649
  0.4815747251329086  0.8791968401514865  0.7090068199041184
  0.3314779956854679  0.9743876295444736  0.2811089080094789
  0.7089747471380647  0.4816133997166503  0.8791960301429782
  0.2864940975299461  0.5132596251345234  0.1155276348936596
  0.0209726354440392  0.7140929080476468  0.6631735472891904
  0.1155239676681461  0.2864626419909868  0.5132854621828002
  0.6631708243166443  0.0209361051810646  0.7141531702916026
  0.5133030369245546  0.1155210847330110  0.2864735669369267
  0.7141095029836961  0.6631508336414669  0.0209949273431747
 
  0.00000000E+00  0.00000000E+00  0.00000000E+00
  0.00000000E+00  0.00000000E+00  0.00000000E+00
  0.00000000E+00  0.00000000E+00  0.00000000E+00
  0.00000000E+00  0.00000000E+00  0.00000000E+00
  0.00000000E+00  0.00000000E+00  0.00000000E+00
  0.00000000E+00  0.00000000E+00  0.00000000E+00
  0.00000000E+00  0.00000000E+00  0.00000000E+00
  0.00000000E+00  0.00000000E+00  0.00000000E+00
  0.00000000E+00  0.00000000E+00  0.00000000E+00
  0.00000000E+00  0.00000000E+00  0.00000000E+00
  0.00000000E+00  0.00000000E+00  0.00000000E+00
  0.00000000E+00  0.00000000E+00  0.00000000E+00
  0.00000000E+00  0.00000000E+00  0.00000000E+00
  0.00000000E+00  0.00000000E+00  0.00000000E+00
  0.00000000E+00  0.00000000E+00  0.00000000E+00
  0.00000000E+00  0.00000000E+00  0.00000000E+00
  0.00000000E+00  0.00000000E+00  0.00000000E+00
  0.00000000E+00  0.00000000E+00  0.00000000E+00
  0.00000000E+00  0.00000000E+00  0.00000000E+00
  0.00000000E+00  0.00000000E+00  0.00000000E+00
  0.00000000E+00  0.00000000E+00  0.00000000E+00
  0.00000000E+00  0.00000000E+00  0.00000000E+00
  0.00000000E+00  0.00000000E+00  0.00000000E+00
  0.00000000E+00  0.00000000E+00  0.00000000E+00
  0.00000000E+00  0.00000000E+00  0.00000000E+00
  0.00000000E+00  0.00000000E+00  0.00000000E+00
  0.00000000E+00  0.00000000E+00  0.00000000E+00
  0.00000000E+00  0.00000000E+00  0.00000000E+00
  0.00000000E+00  0.00000000E+00  0.00000000E+00
  0.00000000E+00  0.00000000E+00  0.00000000E+00
  0.00000000E+00  0.00000000E+00  0.00000000E+00
  0.00000000E+00  0.00000000E+00  0.00000000E+00
  0.00000000E+00  0.00000000E+00  0.00000000E+00
  0.00000000E+00  0.00000000E+00  0.00000000E+00
  0.00000000E+00  0.00000000E+00  0.00000000E+00
