Ca2 Mn4 S6 O24                          
   1.00000000000000     
     7.7568830000000002    0.1206190000000000    4.4808709999999996
     2.6621959999999998    7.2862220000000004    4.4907800000000000
     0.1286320000000000    0.1041690000000000    8.8992540000000009
   Ca   Mn   S    O 
     2     4     6    24
Direct
  0.4020584304965782  0.6330180283106583  0.4884479567310573
  0.9908092433838049  1.0189934690869666 -0.0182169909046491
  0.6481268014314163  0.6347470420773867  0.6689344867471225
  0.1490103988373624  0.1543827361839906  0.1456820714045978
  0.8427164906462913  0.8537303197431770  0.8377427958351565
  0.3516519181835830  0.3506836317644257  0.3528005139940297
  0.9522690855730933  0.2535810854676422  0.5481772628709627
  0.4357319712927378  0.0423863262335146  0.7527311044121856
  0.5524562758379341  0.9536628808040938  0.2435766996161836
  0.7456100062847605  0.4467002047300465  0.0573059316419088
  0.2437044556628182  0.5583266260555444  0.9537744312981637
  0.0398807215851194  0.7570725121498096  0.4412185590934540
  0.4059213953448035  0.5615188194234816  0.7766345852976216
  0.8899185420796355  0.2604526209276474  0.0993104931216762
  0.7832774345968435  0.4182877167484302  0.5473568778585057
  0.0612916233246824  0.9033564258772194  0.2575017672575337
  0.5796438968645917  0.7905212672645855  0.4114115711933353
  0.2513783266579459  0.0868457475780409  0.9002068956911267
  0.7270573682253414  0.9285478689209646  0.0864599119432902
  0.2115206454862169  0.5920096683228313  0.4278833354128350
  0.0938283941425978  0.7398206943941302  0.9132480496017996
  0.4420394377011058  0.2100919822474502  0.5877114801900337
  0.9123478302481627  0.1012626426140251  0.7291656506227349
  0.5823059686298652  0.4614269651919066  0.2271834101576450
  1.0096934655243874  0.1926005129009624  0.3976913036181329
  0.4520248519077774  0.8926228589827645  0.7151113384301939
  0.4018141692799212  0.9522855886026562  0.2183772055547164
  0.6983731565747268  0.4576246554725821  0.9153643637521856
  0.1908536603668205  0.4068650166655438  1.0019255511388090
  0.8798659128725997  0.7138973714768438  0.5010259229245916
  0.1014151182062211  0.2883740264716523  0.5369522096930924
  0.5809274892279804  0.9840400496061172  0.8217901358821113
  0.5050873768178941  0.1241195542321447  0.2649199878714416
  0.8185449895735516  0.5907337953936085 -0.0116066003368655
  0.2889207085857445  0.5392733296735973  0.0991724438693064
  0.0338246104277101  0.8128458382032019  0.5749267723007560
 
             NaN             NaN             NaN
             NaN             NaN             NaN
             NaN             NaN             NaN
             NaN             NaN             NaN
             NaN             NaN             NaN
             NaN             NaN             NaN
             NaN             NaN             NaN
             NaN             NaN             NaN
             NaN             NaN             NaN
             NaN             NaN             NaN
             NaN             NaN             NaN
             NaN             NaN             NaN
             NaN             NaN             NaN
             NaN             NaN             NaN
             NaN             NaN             NaN
             NaN             NaN             NaN
             NaN             NaN             NaN
             NaN             NaN             NaN
             NaN             NaN             NaN
             NaN             NaN             NaN
             NaN             NaN             NaN
             NaN             NaN             NaN
             NaN             NaN             NaN
             NaN             NaN             NaN
             NaN             NaN             NaN
             NaN             NaN             NaN
             NaN             NaN             NaN
             NaN             NaN             NaN
             NaN             NaN             NaN
             NaN             NaN             NaN
             NaN             NaN             NaN
             NaN             NaN             NaN
             NaN             NaN             NaN
             NaN             NaN             NaN
             NaN             NaN             NaN
             NaN             NaN             NaN
