Ca2 Mn4 S6 O24
1.0
7.756883 0.120619 4.480871
2.662196 7.286222 4.490780
0.128632 0.104169 8.899254
Ca Mn S O
2 4 6 24
direct
0.403826 0.637078 0.527842 Ca
0.989445 0.997700 1.005398 Ca
0.650539 0.641560 0.647802 Mn
0.146302 0.155290 0.141819 Mn
0.836626 0.843638 0.849404 Mn
0.353825 0.353318 0.348568 Mn
0.955148 0.248619 0.547086 S
0.435911 0.042289 0.749454 S
0.552111 0.952255 0.243642 S
0.748082 0.444612 0.049652 S
0.248153 0.552318 0.946901 S
0.046877 0.749616 0.447822 S
0.401413 0.570295 0.765655 O
0.899135 0.261005 0.074341 O
0.777196 0.402812 0.561710 O
0.067609 0.902526 0.266620 O
0.569200 0.774996 0.401417 O
0.255931 0.069397 0.902899 O
0.727702 0.928846 0.085856 O
0.222640 0.592321 0.435666 O
0.092447 0.733776 0.922554 O
0.431640 0.217993 0.594777 O
0.938968 0.092017 0.728183 O
0.591372 0.436129 0.225142 O
0.998121 0.184214 0.403891 O
0.459224 0.902592 0.693157 O
0.398177 0.991605 0.197799 O
0.696127 0.479913 0.900532 O
0.193523 0.404986 0.988007 O
0.895328 0.701318 0.488222 O
0.103278 0.300998 0.509410 O
0.583427 -0.016615 0.813153 O
0.523947 0.099698 0.290869 O
0.813176 0.585043 0.007346 O
0.301038 0.521003 0.092785 O
0.011243 0.809490 0.592641 O
