Ca4 V16 P24 O96                         
   1.00000000000000     
    -4.5500470000000002    6.9425509999999999    8.6855170000000008
     5.0867370000000003   -6.6052799999999996    8.7279499999999999
     9.7710919999999994    6.9431170000000000    0.3131490000000000
   Ca   V    P    O 
     4    16    24    96
Direct
  0.5070189729056285  0.5825334397760710  0.4342248978679198
  0.5024863071531626  0.9919843265854564  0.9979840904109226
  0.0009330595618141  0.9977736738414964  0.4970764506971692
  0.0072506669715017  0.4869184134204748  0.9977602928000437
  0.6469800867298423  0.6418777351366025  0.6467961780752907
  0.6428541918683688  0.1428467768335309  0.1462031858524028
  0.1452577784276825  0.1478502260809932  0.6429691888893942
  0.1416927866024398  0.6446522576428136  0.1420357820045024
  0.1392008542756880  0.1430449001016496  0.1411206505451758
  0.1386669646990746  0.6427671521952701  0.6415393279223831
  0.6437945879435374  0.6430029065879280  0.1352896052748762
  0.6384343795795043  0.1429216563283219  0.6416828900278443
  0.8516051618600111  0.8547088496332362  0.8563590128520558
  0.8543087812291635  0.3520844676913804  0.3563030830646642
  0.3520890613909965  0.3555211056763843  0.8553608676558696
  0.3532889837123254  0.8589553967389530  0.3498129301283978
  0.3526906693483829  0.3538599743020320  0.3543714399836536
  0.3462050120515593  0.8541354387525300  0.8523832405684225
  0.8530895340545962  0.8496442070791242  0.3531003642356957
  0.8484300807733781  0.3501130626697729  0.8550597507582974
  0.3858424616376077  0.7467980872824324  0.6087473049480668
  0.3890960847465962  0.2449688542451028  0.1056998658201905
  0.8863525898337750  0.2427318407571218  0.6064794559240895
  0.8900112361136777  0.7451046445162607  0.1041647596884433
  0.3866694177091795  0.6067482822500282  0.2358855226300899
  0.3895446164548714  0.1079629820883346  0.7535220997886187
  0.8899903548464219  0.1055360858399082  0.2533798176164287
  0.8909709908568807  0.6060839725162545  0.7560215683058172
  0.6065607086342443  0.3900786034950368  0.7454311185793933
  0.6072293721454178  0.8854555069969373  0.2428688366128408
  0.1024574646450289  0.8908915377164413  0.7426390711505862
  0.1043662113378228  0.3885532288321888  0.2444188300175995
  0.2484289408809198  0.3921564141454296  0.6042477747100415
  0.2480121188236435  0.8929876361278203  0.1058385793844805
  0.7450075802262707  0.8892175074063532  0.6054879634402401
  0.7510321182953462  0.3878016684675913  0.1095602132098221
  0.7529641414835876  0.6048604591136163  0.3888302656272350
  0.7449884729503469  0.1037161484895406  0.8903845395747373
  0.2475271664292349  0.1069746594156762  0.3904747132535537
  0.2443090987804887  0.6061971231102450  0.8877618408308854
  0.6058637847678954  0.2551432640934151  0.3896705029927358
  0.6047177862874303  0.7538644010724900  0.8926067448174050
  0.1098356007898030  0.7520041131668375  0.3890074403776516
  0.1066351642651132  0.2507507054818606  0.8920071050969718
  0.6836350890017450  0.5822819164250570  0.4972685262763293
  0.6772034417790229  0.0791499104663293  1.0006149175412187
  0.1779911912766162  0.0801221324973781  0.4984307325544167
  0.1744782627981671  0.5817214204682034  0.9964840897928493
  0.1637255530274644  0.4861404034944090  0.6259417971613638
  0.1640700588545134  0.9864214648870269  0.1294899571555048
  0.6610146251372668  0.9843849514980352  0.6217251539299119
  0.6716667565290452  0.4851730291460266  0.1359827445505110
  0.4949147132922606  0.6777204322953562  0.5894636202343575
  0.4936123989347552  0.1716909062231841  0.0794290844144473
  0.9947908249906831  0.1764332502819376  0.5790497076015485
  0.9956885720870797  0.6745212213255053  0.0769333436997804
  0.6262335392816957  0.1705830271160989  0.4841323996165466
  0.6258608655929059  0.6618085725887597  0.9822494025161346
  0.1349370695432166  0.6673769020774856  0.4822305845101356
  0.1286506555532930  0.1624649805826456  0.9830150241123073
  0.5891507041231508  0.5024990492304423  0.6827413994549153
  0.5782409697150335  0.9964586857093077  0.1814170074038571
  0.0782047735012251  1.0016313016377234  0.6785381495308846
  0.0783329309293815  0.4994785959187405  0.1804116137724587
  0.4897690904822932  0.6322883524253090  0.1620943289753887
  0.4882739057787200  0.1330721103302726  0.6709158088786974
  0.9884116863648487  0.1297829570450359  0.1711283830038855
  0.9879092159975075  0.6327071457553332  0.6716211787627350
  0.5093940245932161  0.3681161854724712  0.8256384600151536
  0.5130047849863606  0.8524934439732028  0.3250182579397385
  0.0083179130484528  0.8651312057897734  0.8259263356725399
  0.0126823849078490  0.3633673971643309  0.3307411393815363
  0.4958009140757517  0.3217836108919113  0.4081300262215038
  0.4924626935898915  0.8158712669288363  0.9178716849482050
  1.0006185015149123  0.8182085368731743  0.4149475325199011
  0.9941788474382056  0.3128868194247358  0.9156935647140794
  0.8358378820958430  0.5110954186927251  0.3630801917704481
  0.8315174116200106  0.0110367801838200  0.8673730617609042
  0.3329405107001644  0.0096965240635591  0.3715406537629819
  0.3298114026319918  0.5124617078042158  0.8664139185638505
  0.4125774667167407  0.4999834341665043  0.3052399566065325
  0.4172442830240273  0.9994590534894662  0.8192931246684257
  0.9163285202182169  0.9953030394879505  0.3181566599938681
  0.9195962266797957  0.4975322913783895  0.8211691309477012
  0.3676985502836568  0.8195081128135611  0.5036234359594206
  0.3689381555331538  0.3282630018898524  0.0071608799807606
  0.8631803700678873  0.3262461736973589  0.5084620381556841
  0.8688944556322202  0.8305658974183213  0.0092763920448554
  0.3196964574538521  0.4187776833198655  0.4984898439931457
  0.3160717940122991  0.9196753340751950 -0.0028038283678162
  0.8229197779752124  0.9124687053192823  0.5026172668316123
  0.8225102499973141  0.4144171458373083  0.0031416053137878
  0.2949437913204191  0.6630095096971664  0.6279750289348475
  0.2935250907607687  0.1652331286914211  0.1212846256220730
  0.7962184669101606  0.1572275339657203  0.6208505150659108
  0.7983525049545933  0.6607880594275992  0.1194020217806954
  0.7900790948377104  0.5930192549725652  0.6860081324227786
  0.7875099615014887  0.0954182364432053  0.1858956675182852
  0.2882827804112578  0.0962069156172653  0.6836653896506772
  0.2875311654599429  0.5922780334251536  0.1669076321995787
  0.6282024242628430  0.3025284018038354  0.6594699346543662
  0.6276319074556928  0.8027629884770081  0.1503629353267760
  0.1204370941213051  0.8053939110284780  0.6531242613470175
  0.1168828249524878  0.3046253746557299  0.1525356038456223
  0.6854187980620641  0.7819112039739384  0.5892895006815303
  0.6840366656168206  0.2859156608304255  0.0948726342528481
  0.1844607418297809  0.2863947450569477  0.5889920633952082
  0.1860332720951269  0.7871083278109698  0.0954975794102749
  0.6621686133962259  0.6266692399980471  0.3029831981689398
  0.6589017478491657  0.1181751695572950  0.8013354568134071
  0.1628073856657083  0.1223285221599000  0.3005752568179769
  0.1570611808975674  0.6226019790142101  0.8000860399830884
  0.6001554306067080  0.6965836107399833  0.7834028208422038
  0.5972855215599848  0.1879975981480282  0.2832981802406128
  0.0994602203625321  0.1912079356967549  0.7824196960198230
  0.0998853394536725  0.6864649164449896  0.2826484506682807
  0.4028487066306611  0.3091655245867312  0.2087072746215769
  0.3960532875367431  0.8186170930927806  0.7076504023984891
  0.9026702144418837  0.8072048964353056  0.2097868325332003
  0.8962548392401516  0.3083496146567123  0.7100549819385895
  0.3681483163950965  0.6942642147257839  0.3244271629728230
  0.3702305427529835  0.1959605321863012  0.8390023583069424
  0.8741460308771772  0.1914085276118998  0.3417133639961759
  0.8693139349673750  0.6947194630589639  0.8408739321027806
  0.2134790223857712  0.3959194626243793  0.3056435897870463
  0.2082024803243475  0.9020185666378783  0.8092961794673120
  0.7112858912952229  0.8960624674485805  0.3104961672008589
  0.7110257571642146  0.3995847227304599  0.8157544068978370
  0.8224541936891585  0.8702172698333486  0.7034852872273065
  0.8368488589893534  0.3659546732252707  0.2006595796200174
  0.3263081491763609  0.3701839271094484  0.7014741499652664
  0.3385825389164495  0.8792818640184880  0.1933035036438416
  0.3122841813639851  0.2098594117681641  0.4032516375041108
  0.3067248756983557  0.7119926037062938  0.8997187099911833
  0.8182172634499313  0.7093784603924158  0.4018042767486279
  0.8071288764723205  0.2093265610632828  0.9033439432856418
  0.6941445986706694  0.3406946585588218  0.3715447281288657
  0.6901440420091657  0.8434486058606742  0.8884639289707513
  0.1952998188278572  0.8407411691777149  0.3672333142442499
  0.1902747083079667  0.3422016742105727  0.8828438411706788
 
             NaN             NaN             NaN
             NaN             NaN             NaN
             NaN             NaN             NaN
             NaN             NaN             NaN
             NaN             NaN             NaN
             NaN             NaN             NaN
             NaN             NaN             NaN
             NaN             NaN             NaN
             NaN             NaN             NaN
             NaN             NaN             NaN
             NaN             NaN             NaN
             NaN             NaN             NaN
             NaN             NaN             NaN
             NaN             NaN             NaN
             NaN             NaN             NaN
             NaN             NaN             NaN
             NaN             NaN             NaN
             NaN             NaN             NaN
             NaN             NaN             NaN
             NaN             NaN             NaN
             NaN             NaN             NaN
             NaN             NaN             NaN
             NaN             NaN             NaN
             NaN             NaN             NaN
             NaN             NaN             NaN
             NaN             NaN             NaN
             NaN             NaN             NaN
             NaN             NaN             NaN
             NaN             NaN             NaN
             NaN             NaN             NaN
             NaN             NaN             NaN
             NaN             NaN             NaN
             NaN             NaN             NaN
             NaN             NaN             NaN
             NaN             NaN             NaN
             NaN             NaN             NaN
             NaN             NaN             NaN
             NaN             NaN             NaN
             NaN             NaN             NaN
             NaN             NaN             NaN
             NaN             NaN             NaN
             NaN             NaN             NaN
             NaN             NaN             NaN
             NaN             NaN             NaN
             NaN             NaN             NaN
             NaN             NaN             NaN
             NaN             NaN             NaN
             NaN             NaN             NaN
             NaN             NaN             NaN
             NaN             NaN             NaN
             NaN             NaN             NaN
             NaN             NaN             NaN
             NaN             NaN             NaN
             NaN             NaN             NaN
             NaN             NaN             NaN
             NaN             NaN             NaN
             NaN             NaN             NaN
             NaN             NaN             NaN
             NaN             NaN             NaN
             NaN             NaN             NaN
             NaN             NaN             NaN
             NaN             NaN             NaN
             NaN             NaN             NaN
             NaN             NaN             NaN
             NaN             NaN             NaN
             NaN             NaN             NaN
             NaN             NaN             NaN
             NaN             NaN             NaN
             NaN             NaN             NaN
             NaN             NaN             NaN
             NaN             NaN             NaN
             NaN             NaN             NaN
             NaN             NaN             NaN
             NaN             NaN             NaN
             NaN             NaN             NaN
             NaN             NaN             NaN
             NaN             NaN             NaN
             NaN             NaN             NaN
             NaN             NaN             NaN
             NaN             NaN             NaN
             NaN             NaN             NaN
             NaN             NaN             NaN
             NaN             NaN             NaN
             NaN             NaN             NaN
             NaN             NaN             NaN
             NaN             NaN             NaN
             NaN             NaN             NaN
             NaN             NaN             NaN
             NaN             NaN             NaN
             NaN             NaN             NaN
             NaN             NaN             NaN
             NaN             NaN             NaN
             NaN             NaN             NaN
             NaN             NaN             NaN
             NaN             NaN             NaN
             NaN             NaN             NaN
             NaN             NaN             NaN
             NaN             NaN             NaN
             NaN             NaN             NaN
             NaN             NaN             NaN
             NaN             NaN             NaN
             NaN             NaN             NaN
             NaN             NaN             NaN
             NaN             NaN             NaN
             NaN             NaN             NaN
             NaN             NaN             NaN
             NaN             NaN             NaN
             NaN             NaN             NaN
             NaN             NaN             NaN
             NaN             NaN             NaN
             NaN             NaN             NaN
             NaN             NaN             NaN
             NaN             NaN             NaN
             NaN             NaN             NaN
             NaN             NaN             NaN
             NaN             NaN             NaN
             NaN             NaN             NaN
             NaN             NaN             NaN
             NaN             NaN             NaN
             NaN             NaN             NaN
             NaN             NaN             NaN
             NaN             NaN             NaN
             NaN             NaN             NaN
             NaN             NaN             NaN
             NaN             NaN             NaN
             NaN             NaN             NaN
             NaN             NaN             NaN
             NaN             NaN             NaN
             NaN             NaN             NaN
             NaN             NaN             NaN
             NaN             NaN             NaN
             NaN             NaN             NaN
             NaN             NaN             NaN
             NaN             NaN             NaN
             NaN             NaN             NaN
             NaN             NaN             NaN
             NaN             NaN             NaN
             NaN             NaN             NaN
             NaN             NaN             NaN
             NaN             NaN             NaN
