Ca4 V16 P24 O96
1.0
-4.550047 6.942551 8.685517
5.086737 -6.605280 8.727950
9.771092 6.943117 0.313149
Ca V P O
4 16 24 96
direct
0.527909 0.585594 0.470093 Ca
0.506115 0.995303 0.990282 Ca
1.001358 -0.003542 0.494458 Ca
0.009635 0.489829 0.994498 Ca
0.643182 0.638743 0.646120 V
0.644045 0.145372 0.142243 V
0.143782 0.145006 0.642928 V
0.143509 0.645268 0.143217 V
0.138801 0.143647 0.140722 V
0.137788 0.642242 0.641464 V
0.639029 0.642094 0.139227 V
0.638143 0.141796 0.640962 V
0.852207 0.854156 0.855558 V
0.854137 0.351812 0.355360 V
0.352201 0.354058 0.855574 V
0.350680 0.857164 0.353262 V
0.352466 0.353542 0.354197 V
0.348066 0.851449 0.852679 V
0.852039 0.849602 0.351640 V
0.850236 0.351445 0.852569 V
0.386985 0.742694 0.606512 P
0.388350 0.244638 0.106209 P
0.886761 0.243086 0.605963 P
0.889054 0.744027 0.104453 P
0.391295 0.607119 0.252344 P
0.388949 0.106704 0.752056 P
0.890150 0.105907 0.251968 P
0.889634 0.606563 0.754643 P
0.605619 0.387210 0.746258 P
0.604609 0.890426 0.240370 P
0.103735 0.889483 0.742995 P
0.105438 0.388976 0.244376 P
0.248028 0.389883 0.606469 P
0.246383 0.890654 0.105151 P
0.745719 0.888152 0.605374 P
0.750532 0.389334 0.106754 P
0.748728 0.602905 0.388272 P
0.746504 0.104445 0.887256 P
0.243766 0.106909 0.388455 P
0.246842 0.604651 0.888549 P
0.606685 0.250673 0.389637 P
0.606482 0.752871 0.891722 P
0.105730 0.748758 0.391650 P
0.107009 0.251057 0.890760 P
0.681360 0.581817 0.498488 O
0.680185 0.080557 0.998202 O
0.176878 0.079532 0.497982 O
0.180793 0.578892 0.999282 O
0.165541 0.484992 0.629293 O
0.164399 0.986062 0.127745 O
0.664017 0.984740 0.625775 O
0.669763 0.485632 0.129924 O
0.493419 0.671673 0.583789 O
0.493905 0.173930 0.077303 O
0.993857 0.174653 0.578682 O
0.993753 0.671593 0.077683 O
0.628571 0.164247 0.482246 O
0.627951 0.662923 0.981536 O
0.123885 0.660579 0.482934 O
0.131113 0.164249 0.982683 O
0.582014 0.498599 0.682234 O
0.581406 0.999461 0.174231 O
0.078465 -0.000201 0.678033 O
0.081051 0.499663 0.179648 O
0.489625 0.627016 0.168057 O
0.487619 0.132799 0.669475 O
0.988007 0.130201 0.168757 O
0.987795 0.632698 0.671845 O
0.511068 0.362865 0.828646 O
0.510180 0.871170 0.325915 O
0.009702 0.864037 0.826295 O
0.012200 0.364530 0.329134 O
0.494901 0.313680 0.412053 O
0.494424 0.815736 0.915141 O
-0.002226 0.817738 0.415046 O
0.994815 0.313434 0.915197 O
0.833019 0.509621 0.364254 O
0.832409 0.011312 0.863887 O
0.327261 0.009846 0.365600 O
0.332967 0.511796 0.864754 O
0.414522 0.498888 0.318050 O
0.417280 0.997242 0.816042 O
0.915995 0.995974 0.316725 O
0.918824 0.497471 0.818900 O
0.373069 0.825132 0.507301 O
0.364680 0.326859 0.007459 O
0.863722 0.325828 0.507737 O
0.868694 0.828434 0.007633 O
0.319822 0.414184 0.500755 O
0.320280 0.916893 1.000165 O
0.821660 0.913593 0.501439 O
0.824380 0.415338 0.001827 O
0.292459 0.662973 0.619999 O
0.294671 0.163264 0.124998 O
0.795320 0.159401 0.623089 O
0.793841 0.664958 0.121717 O
0.788376 0.595161 0.685190 O
0.787711 0.096962 0.184279 O
0.287689 0.095403 0.682500 O
0.287782 0.601390 0.185799 O
0.625558 0.302551 0.656686 O
0.616834 0.802841 0.153013 O
0.121675 0.804094 0.653280 O
0.119054 0.304576 0.153015 O
0.681329 0.784855 0.586959 O
0.684755 0.286775 0.089995 O
0.182884 0.285333 0.591742 O
0.181937 0.786458 0.089238 O
0.660273 0.624008 0.301819 O
0.657510 0.118573 0.801016 O
0.156465 0.122640 0.301009 O
0.159040 0.621601 0.801641 O
0.601866 0.694919 0.781115 O
0.598244 0.188328 0.280761 O
0.099050 0.189706 0.782560 O
0.096112 0.690155 0.281803 O
0.402984 0.310879 0.208154 O
0.397712 0.808901 0.709568 O
0.903396 0.808835 0.208158 O
0.899237 0.310196 0.708293 O
0.381086 0.697413 0.336184 O
0.370081 0.193344 0.839094 O
0.874678 0.191923 0.340071 O
0.869544 0.693811 0.840838 O
0.213250 0.397362 0.307182 O
0.210023 0.900868 0.808728 O
0.710334 0.895887 0.307042 O
0.711606 0.400231 0.812167 O
0.825074 0.866512 0.701741 O
0.832991 0.366734 0.200722 O
0.329214 0.367957 0.701379 O
0.328938 0.869194 0.198834 O
0.308719 0.209566 0.400318 O
0.308544 0.710936 0.901490 O
0.812444 0.709218 0.399130 O
0.808721 0.210175 0.898451 O
0.692626 0.338877 0.375477 O
0.690882 0.843415 0.884527 O
0.195242 0.833495 0.381199 O
0.190047 0.343097 0.879490 O
