Ti8 P6                                  
   1.00000000000000     
     3.7423869037021036    3.7423934279858808    3.7424976809165007
     3.7423903948079782   -3.7424670379271880   -3.7424262684211764
    -3.7424626552389935    3.7423873219510564   -3.7424096759976777
   Ti   P 
     8     6
Direct
  0.8652525631178278  0.3652475950234475  0.8652598605113724
  0.0000008860195138  0.1347743446675125  0.4999952175895004
  0.4999953230047893  0.5000068513053932  0.6347664370408950
  0.6347763291289468  0.0000030363526875  0.0000129305711098
  0.0000007791746910  0.6347832594144691  0.4999982798750295
  0.3652487200661625  0.8652537920126306  0.3652514343958018
  0.5000000933093958  0.5000004608790647  0.1347715457897962
  0.1347801672076159  0.9999896946816094  0.0000010161129609
  0.6249776513131664  0.2499947063327284  0.3749828310916499
  0.8749913786421786  0.7499911197167606  0.1249949910242876
  0.2500005407443240  0.6249961161143389  0.8749985822613056
  0.7499952441454241  0.8749804066290991  0.6249746277217625
  0.3749818075006814  0.1249818256695150  0.7499963893695352
  0.1249985166252969  0.3749967912007435  0.2499958566450005
 
  0.00000000E+00  0.00000000E+00  0.00000000E+00
  0.00000000E+00  0.00000000E+00  0.00000000E+00
  0.00000000E+00  0.00000000E+00  0.00000000E+00
  0.00000000E+00  0.00000000E+00  0.00000000E+00
  0.00000000E+00  0.00000000E+00  0.00000000E+00
  0.00000000E+00  0.00000000E+00  0.00000000E+00
  0.00000000E+00  0.00000000E+00  0.00000000E+00
  0.00000000E+00  0.00000000E+00  0.00000000E+00
  0.00000000E+00  0.00000000E+00  0.00000000E+00
  0.00000000E+00  0.00000000E+00  0.00000000E+00
  0.00000000E+00  0.00000000E+00  0.00000000E+00
  0.00000000E+00  0.00000000E+00  0.00000000E+00
  0.00000000E+00  0.00000000E+00  0.00000000E+00
  0.00000000E+00  0.00000000E+00  0.00000000E+00
