Ca2 Ni4 S6 O24                          
   1.00000000000000     
     7.5358419999999997    0.1862190000000000    4.4885359999999999
     2.6325680000000000    7.0383820000000004    4.4664270000000004
     0.1606990000000000    0.1734030000000000    8.7731650000000005
   Ca   Ni   S    O 
     2     4     6    24
Direct
  0.2424706467351426  0.8472692935937454  0.5723016709522271
  0.9711898738675724  0.0216469508978552  0.0034883270496221
  0.6591070475198145  0.6302072120784548  0.6580248385893377
  0.1492694519971880  0.1457541322374753  0.1362278723158017
  0.8281861877564120  0.8506590006574606  0.8534569399121105
  0.3607592975762591  0.3523899613690014  0.3469484134590264
  0.9644620632420107  0.2435125770152434  0.5369600496354223
  0.4468421641172159  0.0328424220871164  0.7543038324813420
  0.5532710302666365  0.9676744591350910  0.2368094037789401
  0.7503380093618823  0.4444277688238300  0.0417960721828768
  0.2472305761713977  0.5437819384940663  0.9600769844996855
  0.0427176313294480  0.7403384060339917  0.4465456690014732
  0.4186165496324814  0.5562457402758283  0.7837899013008290
  0.8855189656271722  0.2499696924759021  0.1222309395860677
  0.8106405088369681  0.4281570961839659  0.5253530888274626
  0.1020229440705198  0.8842491363877485  0.2546557559770922
  0.5481310023223218  0.8327184593342825  0.4331723931450474
  0.2452040881138011  0.1069331774753889  0.8822708945420307
  0.7375791040569017  0.8884233133823389  0.1011176957533838
  0.2038548327181749  0.5578455702975121  0.4711157370198747
  0.0924801832408409  0.7377521384046436  0.9021444585684021
  0.4747607008618092  0.1660044361354947  0.5582978909213395
  0.9137920163845455  0.0909841533744873  0.7301718895931855
  0.5616746955162666  0.4774299559403818  0.1868841657302663
  1.0076882054244374  0.1701542320323934  0.3977478812662975
  0.4726104730071270  0.8429032594109540  0.7728106311760675
  0.3883658492982959 -0.0209576765703299  0.2203644732574934
  0.7555586539601302  0.4309592484131251  0.8767445637518729
  0.1994478920960334  0.3897202686411707  0.9993437822238586
  0.8765170047996500  0.7268924098447427  0.4630461551342702
  0.1460403197735880  0.2348911380058831  0.5197045373531852
  0.5760428411022701  1.0144423026868927  0.8249571753769923
  0.5409087551828134  0.1548557315746294  0.2055255839320256
  0.8229616140570361  0.5899851675429482 -0.0196390676470080
  0.2611266502718322  0.5356929422662137  0.1213979607641134
 -0.0084497976395099  0.8111623213219171  0.5943177194140942
 
             NaN             NaN             NaN
             NaN             NaN             NaN
             NaN             NaN             NaN
             NaN             NaN             NaN
             NaN             NaN             NaN
             NaN             NaN             NaN
             NaN             NaN             NaN
             NaN             NaN             NaN
             NaN             NaN             NaN
             NaN             NaN             NaN
             NaN             NaN             NaN
             NaN             NaN             NaN
             NaN             NaN             NaN
             NaN             NaN             NaN
             NaN             NaN             NaN
             NaN             NaN             NaN
             NaN             NaN             NaN
             NaN             NaN             NaN
             NaN             NaN             NaN
             NaN             NaN             NaN
             NaN             NaN             NaN
             NaN             NaN             NaN
             NaN             NaN             NaN
             NaN             NaN             NaN
             NaN             NaN             NaN
             NaN             NaN             NaN
             NaN             NaN             NaN
             NaN             NaN             NaN
             NaN             NaN             NaN
             NaN             NaN             NaN
             NaN             NaN             NaN
             NaN             NaN             NaN
             NaN             NaN             NaN
             NaN             NaN             NaN
             NaN             NaN             NaN
             NaN             NaN             NaN
