Ca2 Ni4 S6 O24
1.0
7.535842 0.186219 4.488536
2.632568 7.038382 4.466427
0.160699 0.173403 8.773165
Ca Ni S O
2 4 6 24
direct
0.315173 0.774648 0.564552 Ca
0.970352 1.011004 1.014176 Ca
0.651433 0.646880 0.650423 Ni
0.138918 0.151341 0.142895 Ni
0.840269 0.846443 0.845453 Ni
0.361826 0.347560 0.348867 Ni
0.965757 0.249989 0.534249 S
0.435954 0.039776 0.751072 S
0.554746 0.960766 0.237166 S
0.742689 0.453947 0.048857 S
0.251094 0.539349 0.955291 S
0.036409 0.749224 0.453869 S
0.418419 0.557417 0.775854 O
0.885648 0.257092 0.106221 O
0.823872 0.436037 0.535403 O
0.096160 0.890069 0.262139 O
0.570355 0.787358 0.410633 O
0.243760 0.093767 0.896549 O
0.728283 0.916502 0.076918 O
0.176459 0.559297 0.463599 O
0.091861 0.733694 0.916795 O
0.453542 0.204230 0.575340 O
0.918585 0.097352 0.725622 O
0.562532 0.470441 0.207975 O
0.978771 0.201036 0.392521 O
0.444284 0.883785 0.720707 O
0.380730 1.002350 0.216822 O
0.724837 0.468387 0.884426 O
0.200514 0.391084 0.985152 O
0.850707 0.766487 0.485657 O
0.153807 0.232155 0.504177 O
0.581956 -0.025680 0.825069 O
0.552315 0.120373 0.251441 O
0.815403 0.592645 0.004013 O
0.282118 0.512750 0.115079 O
0.025432 0.797296 0.598587 O
