Mn28 Si4 O48                            
   1.00000000000000     
     9.4485733099282392    0.0011070686867399   -0.0017708617367049
     0.0010986773305968    9.4486180466084786   -0.0017684432474542
    -4.7265548721427324   -4.7265752456894354    9.4003910747088426
   Mn   Si   O 
    28     4    48
Direct
  0.1258954268771291  0.3741773410745211  0.2500530372204324
  0.6242951801421555  0.8756084318600017  0.2499886233783215
  0.8740573629464237  0.6259657799447780  0.7500165128780196
  0.3756078184441876  0.1242900940687051  0.7499883127344944
  0.0000011887513480  0.5000005870125435  0.5000092859931726
  0.9999903493760556  0.9999994572569548  0.4999934351455551
  0.0000118736301218  0.5000205105127833  0.0000113328995326
  0.4999695855904491  0.9998852939540726  0.9999462409423217
  0.5000650647980081  0.0000446143632331  0.5000513398451858
  0.4999891400629863  0.4999149507334835  0.4998473174417981
  0.5000039971055656  0.4999846531251464  0.9999956966641435
  0.0000026552323860  0.0000297877164144  0.9999758738792153
  0.2171149546393352  0.7496894687136120  0.4994226135971616
  0.7829038055457431  0.2503289298832669  0.5005943558274311
  0.2496740491812801  0.7171052549895478  0.9994158825542314
  0.2497294796387024  0.2168566850506082  0.9991655658945504
  0.7503207486479084  0.2828963186456619  0.0005913918947087
  0.7502833175184946  0.7831586864976146  0.0008557836876690
  0.7168672284375930  0.7497317990268471  0.4991665415160398
  0.2831689041631691  0.2502842950186732  0.5008598149619345
  0.3583048836621501  0.6087378581840852  0.2493579816480747
  0.3908585853345485  0.1091037393735732  0.2499804859231460
  0.1087244139296217  0.8583050272700277  0.7493331982336358
  0.1414531169196849  0.3585552101481184  0.7500135997328101
  0.6416983978222675  0.3912895239276963  0.7506677578800947
  0.6091116844361366  0.8908395779640230  0.7499747266835968
  0.8912811041914139  0.1416960999494421  0.2506481063776675
  0.8585519240440718  0.6414584166470689  0.2500140080596154
  0.8748671793234806  0.1249054229072541  0.7499112831166883
  0.3751207064882038  0.6250841655831181  0.7500776217536540
  0.6248628585144331  0.3748217584664459  0.2498739857442160
  0.1251301467969697  0.8751591789967890  0.2501031487415943
  0.9116589877069501  0.7007001034778213  0.6072251148545931
  0.1959291528052773  0.2006079416169868  0.6079830072613746
  0.2007139228348507  0.4116936144254879  0.1072629581872775
  0.4064445899112741  0.9120227677180281  0.1076283733952152
  0.0883474238225332  0.2992936495275487  0.3927700062293269
  0.8040945208962995  0.7994303835398497  0.3920693425140840
  0.7993026830234555  0.5883771021048361  0.8927974357197144
  0.5935336257348212  0.0879030540754542  0.8923384357868258
  0.4120524866037556  0.9064582582516394  0.6076359127317517
  0.6957095657054069  0.4071564800562655  0.6081218593203062
  0.7005969677414612  0.6959157871330390  0.1079799804962036
  0.9071547706577334  0.1957284546980915  0.1081023411944741
  0.5879419429688824  0.0935459577585220  0.3923525004353436
  0.3043134384742032  0.5928646412620679  0.3919232366507970
  0.2994150245155680  0.3040770541964406  0.8920621092348853
  0.0928477896026294  0.8043170272407139  0.8918856592436626
  0.0184906215614546  0.5854269306929680  0.3853559055244915
  0.8669002224847873  0.0858216406525969  0.3858068888549724
  0.0854240084772044  0.5184964841079065  0.8853503341345998
  0.2999850606500658  0.0183611881933814  0.8850265293298420
  0.9815159478882336  0.4145831256577495  0.6146647370428013
  0.1331159728530054  0.9142075883927845  0.6141960205049486
  0.9145911386504295  0.4815366232709408  0.1146838995927268
  0.6999991787749664  0.9816047549675062  0.1149449263645579
  0.5183964820370335  0.8000177976578300  0.3850734951282107
  0.3667258412347962  0.3000315773241127  0.3856558895142257
  0.5858093206339134  0.3668842690182998  0.8858061103805923
  0.8000653704970446  0.8667278785885628  0.8856677461358444
  0.4816307365100840  0.2000177170403603  0.6149685027061480
  0.6332630595130269  0.6998797932596972  0.6142693908173840
  0.4142052735585651  0.6331154091711326  0.1142188873666754
  0.1999328625620578  0.1332718772226258  0.1143033688918180
  0.2123672460080854  0.6575172235496325  0.6506358815451634
  0.9382684843684075  0.1574123741055189  0.6506053219781549
  0.1575120135172838  0.7124095269215189  0.1506024367416074
  0.4929291138845215  0.2120693036475103  0.1503793755028653
  0.7876271288657151  0.3424917618101446  0.3493989470115011
  0.0617078299050604  0.8425901479211220  0.3493763146597004
  0.8424918544972044  0.2876728597119182  0.8493823631973996
  0.5070822148801923  0.7878212071788298  0.8496243360117290
  0.7121318360450175  0.9929485997381917  0.6504214668640955
  0.4384287154332185  0.4931774505713804  0.6506843693118398
  0.6573970648626641  0.4382294251474548  0.1505833767030964
  0.9931987868773078  0.9384850261030522  0.1507359854030526
  0.2878869506769632  0.0070884963668263  0.3496454707835213
  0.5615485260064901  0.5067905250061600  0.3492240912804760
  0.3425774456920720  0.5616767102011764  0.8493716541436029
  0.0068196653960015  0.0616135108521902  0.8492928404657931
 
  0.00000000E+00  0.00000000E+00  0.00000000E+00
  0.00000000E+00  0.00000000E+00  0.00000000E+00
  0.00000000E+00  0.00000000E+00  0.00000000E+00
  0.00000000E+00  0.00000000E+00  0.00000000E+00
  0.00000000E+00  0.00000000E+00  0.00000000E+00
  0.00000000E+00  0.00000000E+00  0.00000000E+00
  0.00000000E+00  0.00000000E+00  0.00000000E+00
  0.00000000E+00  0.00000000E+00  0.00000000E+00
  0.00000000E+00  0.00000000E+00  0.00000000E+00
  0.00000000E+00  0.00000000E+00  0.00000000E+00
  0.00000000E+00  0.00000000E+00  0.00000000E+00
  0.00000000E+00  0.00000000E+00  0.00000000E+00
  0.00000000E+00  0.00000000E+00  0.00000000E+00
  0.00000000E+00  0.00000000E+00  0.00000000E+00
  0.00000000E+00  0.00000000E+00  0.00000000E+00
  0.00000000E+00  0.00000000E+00  0.00000000E+00
  0.00000000E+00  0.00000000E+00  0.00000000E+00
  0.00000000E+00  0.00000000E+00  0.00000000E+00
  0.00000000E+00  0.00000000E+00  0.00000000E+00
  0.00000000E+00  0.00000000E+00  0.00000000E+00
  0.00000000E+00  0.00000000E+00  0.00000000E+00
  0.00000000E+00  0.00000000E+00  0.00000000E+00
  0.00000000E+00  0.00000000E+00  0.00000000E+00
  0.00000000E+00  0.00000000E+00  0.00000000E+00
  0.00000000E+00  0.00000000E+00  0.00000000E+00
  0.00000000E+00  0.00000000E+00  0.00000000E+00
  0.00000000E+00  0.00000000E+00  0.00000000E+00
  0.00000000E+00  0.00000000E+00  0.00000000E+00
  0.00000000E+00  0.00000000E+00  0.00000000E+00
  0.00000000E+00  0.00000000E+00  0.00000000E+00
  0.00000000E+00  0.00000000E+00  0.00000000E+00
  0.00000000E+00  0.00000000E+00  0.00000000E+00
  0.00000000E+00  0.00000000E+00  0.00000000E+00
  0.00000000E+00  0.00000000E+00  0.00000000E+00
  0.00000000E+00  0.00000000E+00  0.00000000E+00
  0.00000000E+00  0.00000000E+00  0.00000000E+00
  0.00000000E+00  0.00000000E+00  0.00000000E+00
  0.00000000E+00  0.00000000E+00  0.00000000E+00
  0.00000000E+00  0.00000000E+00  0.00000000E+00
  0.00000000E+00  0.00000000E+00  0.00000000E+00
  0.00000000E+00  0.00000000E+00  0.00000000E+00
  0.00000000E+00  0.00000000E+00  0.00000000E+00
  0.00000000E+00  0.00000000E+00  0.00000000E+00
  0.00000000E+00  0.00000000E+00  0.00000000E+00
  0.00000000E+00  0.00000000E+00  0.00000000E+00
  0.00000000E+00  0.00000000E+00  0.00000000E+00
  0.00000000E+00  0.00000000E+00  0.00000000E+00
  0.00000000E+00  0.00000000E+00  0.00000000E+00
  0.00000000E+00  0.00000000E+00  0.00000000E+00
  0.00000000E+00  0.00000000E+00  0.00000000E+00
  0.00000000E+00  0.00000000E+00  0.00000000E+00
  0.00000000E+00  0.00000000E+00  0.00000000E+00
  0.00000000E+00  0.00000000E+00  0.00000000E+00
  0.00000000E+00  0.00000000E+00  0.00000000E+00
  0.00000000E+00  0.00000000E+00  0.00000000E+00
  0.00000000E+00  0.00000000E+00  0.00000000E+00
  0.00000000E+00  0.00000000E+00  0.00000000E+00
  0.00000000E+00  0.00000000E+00  0.00000000E+00
  0.00000000E+00  0.00000000E+00  0.00000000E+00
  0.00000000E+00  0.00000000E+00  0.00000000E+00
  0.00000000E+00  0.00000000E+00  0.00000000E+00
  0.00000000E+00  0.00000000E+00  0.00000000E+00
  0.00000000E+00  0.00000000E+00  0.00000000E+00
  0.00000000E+00  0.00000000E+00  0.00000000E+00
  0.00000000E+00  0.00000000E+00  0.00000000E+00
  0.00000000E+00  0.00000000E+00  0.00000000E+00
  0.00000000E+00  0.00000000E+00  0.00000000E+00
  0.00000000E+00  0.00000000E+00  0.00000000E+00
  0.00000000E+00  0.00000000E+00  0.00000000E+00
  0.00000000E+00  0.00000000E+00  0.00000000E+00
  0.00000000E+00  0.00000000E+00  0.00000000E+00
  0.00000000E+00  0.00000000E+00  0.00000000E+00
  0.00000000E+00  0.00000000E+00  0.00000000E+00
  0.00000000E+00  0.00000000E+00  0.00000000E+00
  0.00000000E+00  0.00000000E+00  0.00000000E+00
  0.00000000E+00  0.00000000E+00  0.00000000E+00
  0.00000000E+00  0.00000000E+00  0.00000000E+00
  0.00000000E+00  0.00000000E+00  0.00000000E+00
  0.00000000E+00  0.00000000E+00  0.00000000E+00
  0.00000000E+00  0.00000000E+00  0.00000000E+00
