Ti4 P4 O18                              
   1.00000000000000     
     4.9746388309168044    0.0158625943391060    1.2185947380734128
     1.8502272044425039    8.1766039905208903    2.2925914420474762
     0.0004048049712241   -0.0131751116671399    9.7086941803521221
   Ti   P    O 
     4     4    18
Direct
  0.7865426801746808  0.2645614320013953  0.6503242978771879
  0.2134751576976865  0.7354325321739871  0.3496710114070056
  0.3516752498947663  0.1193601920942963  0.1862614437547978
  0.6482474075136342  0.8806616010261621  0.8137426924407122
  0.3674012067603505  0.3179258639718540  0.4301535408543021
  0.6326272697886459  0.6820564743455804  0.5698538479776485
  0.2040593602579111  0.2020473615992995  0.8711093991985482
  0.7959179580413870  0.7979779825351736  0.1288838291766927
  0.4101243757060596  0.2917063824453547  0.7649369325500869
  0.5898659756124798  0.7082987773043468  0.2350527475520310
  0.3138477592744523  0.0133377273022328  0.8823712565177961
  0.6861129497700268  0.9866867151097991  0.1176324003286256
  0.6447971701496616  0.2702629221301567  0.4783141392058026
  0.3552380421729722  0.7297230500944444  0.5216867621467740
  0.7406665764451416  0.4986562139357344  0.6019063830331245
  0.2593519469318120  0.5013232100957385  0.3980972626101783
  0.9227893072038784  0.2538421011368728  0.8294577927639009
  0.0771829754201345  0.7461745928470518  0.1705436611063111
  0.1601096839435337  0.2327793910144358  0.5430947781056765
  0.8399282912803998  0.7671965465794771  0.4569125899670257
  0.1809429893020233  0.2309277306419169  0.0242261385234212
  0.8190350142568913  0.7691062139513638  0.9757646269007145
  0.4091228666548636  0.2580106368120670  0.2878417450372142
  0.5909264881485639  0.7419702474364355  0.7121647467789948
  0.1765726412566725  0.9722540979453929  0.2945504907281839
  0.8234386563413496  0.0277200034694376  0.7054454834572501
 
  0.00000000E+00  0.00000000E+00  0.00000000E+00
  0.00000000E+00  0.00000000E+00  0.00000000E+00
  0.00000000E+00  0.00000000E+00  0.00000000E+00
  0.00000000E+00  0.00000000E+00  0.00000000E+00
  0.00000000E+00  0.00000000E+00  0.00000000E+00
  0.00000000E+00  0.00000000E+00  0.00000000E+00
  0.00000000E+00  0.00000000E+00  0.00000000E+00
  0.00000000E+00  0.00000000E+00  0.00000000E+00
  0.00000000E+00  0.00000000E+00  0.00000000E+00
  0.00000000E+00  0.00000000E+00  0.00000000E+00
  0.00000000E+00  0.00000000E+00  0.00000000E+00
  0.00000000E+00  0.00000000E+00  0.00000000E+00
  0.00000000E+00  0.00000000E+00  0.00000000E+00
  0.00000000E+00  0.00000000E+00  0.00000000E+00
  0.00000000E+00  0.00000000E+00  0.00000000E+00
  0.00000000E+00  0.00000000E+00  0.00000000E+00
  0.00000000E+00  0.00000000E+00  0.00000000E+00
  0.00000000E+00  0.00000000E+00  0.00000000E+00
  0.00000000E+00  0.00000000E+00  0.00000000E+00
  0.00000000E+00  0.00000000E+00  0.00000000E+00
  0.00000000E+00  0.00000000E+00  0.00000000E+00
  0.00000000E+00  0.00000000E+00  0.00000000E+00
  0.00000000E+00  0.00000000E+00  0.00000000E+00
  0.00000000E+00  0.00000000E+00  0.00000000E+00
  0.00000000E+00  0.00000000E+00  0.00000000E+00
  0.00000000E+00  0.00000000E+00  0.00000000E+00
