Ca4 V4 P6 O24                           
   1.00000000000000     
     2.5705450000000001    7.2614979999999996    4.3704989999999997
    -0.0055390000000000    0.0519890000000000    8.7775090000000002
     7.6640040000000003    0.0540900000000000    4.2755440000000000
   Ca   V    P    O 
     4     4     6    24
Direct
  0.3927757310793365  0.6420417283723604  0.5175692996296650
  0.9566900409287633  0.0098456694076580  0.0165959655640562
  0.3938685459435559  0.7449660817867346  0.0841992802317090
  0.1052671982863972  0.3843265279213677  0.7506912564553625
  0.6576921331148795  0.6298959559883116  0.6483343327624989
  0.1514870736883976  0.1418562695056576  0.1556205342343056
  0.8487493057529005  0.8668364387956088  0.8467288937565748
  0.3453943647298240  0.3475767708153507  0.3490229364151081
  0.2382875540028297  0.5561100332798449  0.9560945579605613
  0.0405602077952220  0.7538787635683390  0.4488160162766452
  0.9480632812213690  0.2543570203242762  0.5521594944115360
  0.4617069081786392  0.0414362118492696  0.7473119921211590
  0.5387504456031804  0.9509699647794684  0.2477527798246008
  0.7536137727646447  0.4491467357017545  0.0391939250320298
  0.5560719420429283  0.8089304071402109  0.4348659654760941
  0.2650418765423234  0.0713009390675776  0.9088260060792267
  0.4172580954899547  0.5663151497066635  0.7873289470360283
  0.9190412536720424  0.2729670075780350  0.0766814142511204
  0.7688779925868534  0.4227534700532559  0.5509313606002347
  0.0756292546640537  0.9027741351685321  0.2578883200129005
  0.9164680405578962  0.0994024915225373  0.7405162497170767
  0.5726698561912422  0.4406314264946973  0.2004608821007021
  0.7267905558669143  0.9144877170656999  0.0965405743523480
  0.2278563593009670  0.5838744641036314  0.4286489795244016
  0.0845550559291977  0.7436649612632201  0.9167257051237718
  0.4259920295247480  0.2106957435849900  0.5811955530645043
  0.1944250775790399  0.3992192436320589  0.9732095676650814
  0.8809619366605608  0.7052371008894985  0.4943294864290010
  0.0147466820753344  0.1854228630475142  0.3953375516325033
  0.5030179658690296  0.8492970829422741  0.7488500839642886
  0.3963014779069868  0.9141627373559866  0.2253504167587863
  0.7612149935554416  0.4492078813673613  0.8596538984428997
  0.2641944467780760  0.5364359447547294  0.1251419345691184
  0.0333888931038774  0.7882803723648407  0.6073668169925388
  0.0996496095845814  0.3068664789909356  0.5376341541831693
  0.6052374885947229  0.0291611580911766  0.8013080125453795
  0.4687142508553349  0.1467565747346934  0.2437197716025172
  0.7731526246955430  0.6295469055968190 -0.0028688197722791
 
             NaN             NaN             NaN
             NaN             NaN             NaN
             NaN             NaN             NaN
             NaN             NaN             NaN
             NaN             NaN             NaN
             NaN             NaN             NaN
             NaN             NaN             NaN
             NaN             NaN             NaN
             NaN             NaN             NaN
             NaN             NaN             NaN
             NaN             NaN             NaN
             NaN             NaN             NaN
             NaN             NaN             NaN
             NaN             NaN             NaN
             NaN             NaN             NaN
             NaN             NaN             NaN
             NaN             NaN             NaN
             NaN             NaN             NaN
             NaN             NaN             NaN
             NaN             NaN             NaN
             NaN             NaN             NaN
             NaN             NaN             NaN
             NaN             NaN             NaN
             NaN             NaN             NaN
             NaN             NaN             NaN
             NaN             NaN             NaN
             NaN             NaN             NaN
             NaN             NaN             NaN
             NaN             NaN             NaN
             NaN             NaN             NaN
             NaN             NaN             NaN
             NaN             NaN             NaN
             NaN             NaN             NaN
             NaN             NaN             NaN
             NaN             NaN             NaN
             NaN             NaN             NaN
             NaN             NaN             NaN
             NaN             NaN             NaN
