Ca4 V16 P24 O96                         
   1.00000000000000     
    -4.5857970000000003    6.9517239999999996    8.6823379999999997
     5.0939439999999996   -6.6349510000000000    8.7145209999999995
     9.8009860000000000    6.9596330000000002    0.2864870000000000
   Ca   V    P    O 
     4    16    24    96
Direct
  0.5321833742322828  0.6889091492964491  0.4182104800281795
  0.5025651232920034  0.9966414226032021  0.9923466104699862
  0.9972370801217548 -0.0024552850857812  0.4974013244358947
  0.0087819953512487  0.4864307165954888  0.9976250435842060
  0.6436683084985413  0.6349964375146177  0.6482633065780882
  0.6432090007223967  0.1463716171947691  0.1436938216215633
  0.1432603587845682  0.1475121494643637  0.6428242308006707
  0.1429154959095913  0.6433545755198451  0.1424806262886659
  0.1392312666709910  0.1444845254913578  0.1400274895038196
  0.1357129187403151  0.6421565386504032  0.6420891694471949
  0.6441997420349517  0.6425530198975983  0.1348153263545601
  0.6372296911693662  0.1410396901902047  0.6410182429592751
  0.8496433233088100  0.8537219138874529  0.8551139630270046
  0.8575582591728762  0.3484851375463354  0.3563673589026555
  0.3517469341720431  0.3544600898644206  0.8558707011685109
  0.3479851395996386  0.8636213708823665  0.3490381611671282
  0.3576063086927553  0.3578117972951323  0.3578402862239853
  0.3458034012190027  0.8523734482190327  0.8532940574024445
  0.8538065787452163  0.8478875379455225  0.3521727497788081
  0.8508390811366346  0.3486140378102603  0.8548912664952866
  0.3853857509735470  0.7415270648254036  0.6111111505352661
  0.3895158153650851  0.2474947552186402  0.1071115243946551
  0.8854693030329165  0.2417918690681869  0.6070918430680849
  0.8918769457358452  0.7465298004937695  0.1015129479864490
  0.3882206353464052  0.6051900360086262  0.2446874890819112
  0.3879564127890924  0.1073855130479815  0.7525746983792292
  0.8907179407322713  0.1044903310097486  0.2521769319924564
  0.8889275111649613  0.6062430026562515  0.7579741455625953
  0.6076686251692910  0.3853909952932795  0.7479896267533729
  0.6073840089422475  0.8886215003197107  0.2376604831683259
  0.1018312708810144  0.8898002466036710  0.7413743935829112
  0.1072843348170594  0.3878227953154401  0.2448268224188330
  0.2464463873103893  0.3909596766269521  0.6062829844171388
  0.2453238000938606  0.8932999596218837  0.1037829392183977
  0.7391502496881723  0.8846297929754953  0.6029634685345184
  0.7534724521830580  0.3882583457372897  0.1089657502558609
  0.7580980290860079  0.6016841203628007  0.3901613294302885
  0.7452894263892056  0.1033487925469036  0.8886018455036381
  0.2436309828193668  0.1104345727644515  0.3906048873987089
  0.2452427420482146  0.6051511976529428  0.8885403688060127
  0.6075241962783996  0.2521671394262607  0.3892071082312449
  0.6049796015903605  0.7541375164770108  0.8935170989143897
  0.1070251252477642  0.7487356648196991  0.3916484431896879
  0.1073224195290951  0.2500964920320239  0.8914541631828797
  0.6821675553364944  0.5849816956865639  0.4943565118234594
  0.6785098133805009  0.0802861193690732  0.9990461339963872
  0.1743925821664700  0.0804129089832675  0.4964222052262530
  0.1775374450825249  0.5802617088251318  0.9982219634005554
  0.1629053020068418  0.4846751272339516  0.6289285343675459
  0.1621110195236902  0.9873214593652396  0.1255645650954520
  0.6595488074407253  0.9831537574391074  0.6208318657885342
  0.6750428526673947  0.4857508536691887  0.1331170834276334
  0.4900499995302190  0.6651751163856099  0.5996239874852305
  0.4936634121368113  0.1743487360258150  0.0790838409201209
  0.9928851186169816  0.1742752477179082  0.5806790258242865
  0.9951492718096618  0.6713746090189994  0.0782862808434995
  0.6259229828012702  0.1672448874416544  0.4833944324344293
  0.6202079792822789  0.6601761267716448  0.9815904290424549
  0.1229031061739018  0.6607403140360343  0.4830617988402658
  0.1300064516958087  0.1635899040676887  0.9837044839683652
  0.5933225992657759  0.4998960853828301  0.6879696659996565
  0.5791987094928963  0.9987467977438418  0.1769907520366537
  0.0794212618306297  0.0009391891231110  0.6775427621281891
  0.0806733277004705  0.4989323719534188  0.1814588092713777
  0.4938471331645146  0.6274642461403900  0.1720934125672374
  0.4871483917957743  0.1323375115989795  0.6707858472821711
  0.9885833484468609  0.1280497413989821  0.1701234913794725
  0.9870610804771891  0.6333305062313334  0.6758531776039145
  0.5093814861882431  0.3656126166529699  0.8259651039250805
  0.5132558400391702  0.8605340674350170  0.3237222051867843
  0.0050395614361356  0.8646765082660470  0.8211012852321324
  0.0150273759479645  0.3623592728735644  0.3302383923799697
  0.4962190660840048  0.3158356259039957  0.4068653987816774
  0.4931037056456363  0.8178567477057925  0.9150334307773720
  0.0009691204118736  0.8204343568394585  0.4134550138388216
  0.9953594398168111  0.3128637962229319  0.9154291518669009
  0.8394320852402930  0.5073914859474680  0.3672990583890702
  0.8292706093941423  0.0098806418530049  0.8623682227022400
  0.3267568794694916  0.0083893590333988  0.3722571795033068
  0.3304065964973344  0.5118920248549145  0.8658503084626009
  0.4127877376943954  0.5043029772361849  0.3199334694376634
  0.4149338597462450  0.9983946417703427  0.8169243442752981
  0.9146864305547677  0.9941037230815573  0.3171010434892234
  0.9176796155346414  0.4970431344196811  0.8212046562349551
  0.3852343963272140  0.8127872666236368  0.5029225271448764
  0.3684774414227542  0.3282035224824800  0.0064943945241064
  0.8645809762913396  0.3243415149398708  0.5085217763806350
  0.8764294528501241  0.8337485530966040  0.0078303303617292
  0.3149560340449165  0.4131755371201370  0.4999225276457613
  0.3165164141051762  0.9192328687806769  0.9973096711145130
  0.8202145996433398  0.9093846366111040  0.5027059654737042
  0.8259526203721571  0.4131500470999184  0.0037241494852467
  0.2883042623340221  0.6648663042975983  0.6233031813665370
  0.2941849131571805  0.1671808246412017  0.1235186006490851
  0.7947451129861460  0.1569877014598492  0.6213225959533618
  0.7955089520305169  0.6670027241969453  0.1113334603422900
  0.7900098185286130  0.5958742820381010  0.6849301289604600
  0.7874483008182892  0.0974940995433020  0.1854166135038781
  0.2869324985823524  0.0967149193544694  0.6819377226032596
  0.2895840587189495  0.5933663366278168  0.1736589313197888
  0.6280113185724123  0.3010129598795406  0.6596041320414762
  0.6203522552009189  0.8030692030731884  0.1482110382368866
  0.1189224524035968  0.8049222948693097  0.6515077907274988
  0.1160080250145399  0.3047987356769372  0.1517736637222887
  0.6747860054589991  0.7811999656492389  0.5801666114385248
  0.6850456877313712  0.2871399899902453  0.0926481120641138
  0.1798351469720788  0.2848331754996405  0.5928971173791859
  0.1843830685987974  0.7865605454260731  0.0925732517898650
  0.6746106584112923  0.6297438137446190  0.2985427167809879
  0.6576525971737101  0.1187330346207314  0.8011253805117714
  0.1612052306773978  0.1228474337820852  0.2990078518457830
  0.1577103904339451  0.6222817150127467  0.8016673055337311
  0.6061293292013620  0.7016625519496719  0.7816306561637943
  0.5982130977608886  0.1865336496653159  0.2817102020542104
  0.0983711132222538  0.1889398836224722  0.7845077960681121
  0.1007127091349415  0.6887406751224042  0.2819291090319178
  0.4046258749814167  0.3137160521377488  0.2080004901432665
  0.3931397039914404  0.8143816624279206  0.7091207050305974
  0.9034798016254906  0.8055030917459739  0.2091977623844682
  0.8963710535642141  0.3085204150865281  0.7097342216004058
  0.3690680837707305  0.7014982522167772  0.3236095408177500
  0.3701232058413144  0.1944346855481709  0.8390353365221328
  0.8782920885569079  0.1894797099794702  0.3416990918899494
  0.8673092493491790  0.6930969000439527  0.8444379299780356
  0.2163242068140670  0.3941820826437201  0.3047632676604649
  0.2063887685860836  0.8991566179137435  0.8099327132208237
  0.7118081713359256  0.8934550835662576  0.3057931069298345
  0.7115226590129298  0.3949205341930754  0.8184578953088830
  0.8128703833183738  0.8603525454308242  0.7031963868091927
  0.8372851310732352  0.3650623035403999  0.2015577218170405
  0.3252357495892269  0.3674152726592085  0.7020786545622357
  0.3323927016288418  0.8807246502539424  0.1941866342786701
  0.3120090501349849  0.2094865764450886  0.4027229463762770
  0.3082738326300717  0.7108017799294998  0.9018987574509582
  0.8235167996340799  0.7073902436929100  0.4036543027779984
  0.8104093737345491  0.2071643217937605  0.9017584599019137
  0.6970517622838883  0.3357252627216431  0.3716433045402923
  0.6913684477287652  0.8428908475616779  0.8962315868216837
  0.1973706696943950  0.8336535156698753  0.3809373426869175
  0.1905174747201021  0.3421630484680427  0.8824136907512872
 
             NaN             NaN             NaN
             NaN             NaN             NaN
             NaN             NaN             NaN
             NaN             NaN             NaN
             NaN             NaN             NaN
             NaN             NaN             NaN
             NaN             NaN             NaN
             NaN             NaN             NaN
             NaN             NaN             NaN
             NaN             NaN             NaN
             NaN             NaN             NaN
             NaN             NaN             NaN
             NaN             NaN             NaN
             NaN             NaN             NaN
             NaN             NaN             NaN
             NaN             NaN             NaN
             NaN             NaN             NaN
             NaN             NaN             NaN
             NaN             NaN             NaN
             NaN             NaN             NaN
             NaN             NaN             NaN
             NaN             NaN             NaN
             NaN             NaN             NaN
             NaN             NaN             NaN
             NaN             NaN             NaN
             NaN             NaN             NaN
             NaN             NaN             NaN
             NaN             NaN             NaN
             NaN             NaN             NaN
             NaN             NaN             NaN
             NaN             NaN             NaN
             NaN             NaN             NaN
             NaN             NaN             NaN
             NaN             NaN             NaN
             NaN             NaN             NaN
             NaN             NaN             NaN
             NaN             NaN             NaN
             NaN             NaN             NaN
             NaN             NaN             NaN
             NaN             NaN             NaN
             NaN             NaN             NaN
             NaN             NaN             NaN
             NaN             NaN             NaN
             NaN             NaN             NaN
             NaN             NaN             NaN
             NaN             NaN             NaN
             NaN             NaN             NaN
             NaN             NaN             NaN
             NaN             NaN             NaN
             NaN             NaN             NaN
             NaN             NaN             NaN
             NaN             NaN             NaN
             NaN             NaN             NaN
             NaN             NaN             NaN
             NaN             NaN             NaN
             NaN             NaN             NaN
             NaN             NaN             NaN
             NaN             NaN             NaN
             NaN             NaN             NaN
             NaN             NaN             NaN
             NaN             NaN             NaN
             NaN             NaN             NaN
             NaN             NaN             NaN
             NaN             NaN             NaN
             NaN             NaN             NaN
             NaN             NaN             NaN
             NaN             NaN             NaN
             NaN             NaN             NaN
             NaN             NaN             NaN
             NaN             NaN             NaN
             NaN             NaN             NaN
             NaN             NaN             NaN
             NaN             NaN             NaN
             NaN             NaN             NaN
             NaN             NaN             NaN
             NaN             NaN             NaN
             NaN             NaN             NaN
             NaN             NaN             NaN
             NaN             NaN             NaN
             NaN             NaN             NaN
             NaN             NaN             NaN
             NaN             NaN             NaN
             NaN             NaN             NaN
             NaN             NaN             NaN
             NaN             NaN             NaN
             NaN             NaN             NaN
             NaN             NaN             NaN
             NaN             NaN             NaN
             NaN             NaN             NaN
             NaN             NaN             NaN
             NaN             NaN             NaN
             NaN             NaN             NaN
             NaN             NaN             NaN
             NaN             NaN             NaN
             NaN             NaN             NaN
             NaN             NaN             NaN
             NaN             NaN             NaN
             NaN             NaN             NaN
             NaN             NaN             NaN
             NaN             NaN             NaN
             NaN             NaN             NaN
             NaN             NaN             NaN
             NaN             NaN             NaN
             NaN             NaN             NaN
             NaN             NaN             NaN
             NaN             NaN             NaN
             NaN             NaN             NaN
             NaN             NaN             NaN
             NaN             NaN             NaN
             NaN             NaN             NaN
             NaN             NaN             NaN
             NaN             NaN             NaN
             NaN             NaN             NaN
             NaN             NaN             NaN
             NaN             NaN             NaN
             NaN             NaN             NaN
             NaN             NaN             NaN
             NaN             NaN             NaN
             NaN             NaN             NaN
             NaN             NaN             NaN
             NaN             NaN             NaN
             NaN             NaN             NaN
             NaN             NaN             NaN
             NaN             NaN             NaN
             NaN             NaN             NaN
             NaN             NaN             NaN
             NaN             NaN             NaN
             NaN             NaN             NaN
             NaN             NaN             NaN
             NaN             NaN             NaN
             NaN             NaN             NaN
             NaN             NaN             NaN
             NaN             NaN             NaN
             NaN             NaN             NaN
             NaN             NaN             NaN
             NaN             NaN             NaN
             NaN             NaN             NaN
             NaN             NaN             NaN
             NaN             NaN             NaN
             NaN             NaN             NaN
