Ca4 V16 P24 O96
1.0
-4.585797 6.951724 8.682338
5.093944 -6.634951 8.714521
9.800986 6.959633 0.286487
Ca V P O
4 16 24 96
direct
0.548710 0.678609 0.447538 Ca
0.505133 0.998013 0.987908 Ca
0.995617 0.000296 0.496271 Ca
0.012117 0.487053 0.996392 Ca
0.642151 0.633950 0.649089 V
0.643808 0.147206 0.141342 V
0.143285 0.146431 0.642729 V
0.142742 0.647016 0.143303 V
0.138626 0.145003 0.140118 V
0.136740 0.642102 0.641680 V
0.639078 0.641893 0.137126 V
0.637308 0.141300 0.640598 V
0.852034 0.854386 0.855762 V
0.855898 0.349716 0.355370 V
0.352015 0.354211 0.855784 V
0.348993 0.860436 0.351168 V
0.355715 0.355361 0.356440 V
0.346934 0.851189 0.853411 V
0.854881 0.847480 0.351338 V
0.851243 0.351169 0.853200 V
0.386168 0.742659 0.607339 P
0.388812 0.246495 0.106728 P
0.885645 0.243378 0.606248 P
0.890228 0.745266 0.103229 P
0.392726 0.607744 0.252392 P
0.388033 0.106911 0.751819 P
0.890438 0.105313 0.251647 P
0.889443 0.606589 0.757015 P
0.606941 0.385245 0.748104 P
0.604940 0.891672 0.236336 P
0.103174 0.889737 0.741571 P
0.106592 0.388777 0.244345 P
0.247964 0.390133 0.606678 P
0.244745 0.891694 0.104085 P
0.743428 0.886691 0.604529 P
0.753035 0.389043 0.107302 P
0.751384 0.601318 0.388734 P
0.746938 0.104391 0.886709 P
0.241460 0.109331 0.389109 P
0.247628 0.604830 0.889316 P
0.606644 0.249736 0.388552 P
0.606247 0.754119 0.892707 P
0.104819 0.745930 0.392599 P
0.107294 0.250489 0.890806 P
0.682380 0.585149 0.497407 O
0.680016 0.082644 0.996842 O
0.173408 0.080591 0.496401 O
0.181211 0.579292 0.998984 O
0.165907 0.484836 0.630045 O
0.163835 0.987016 0.127187 O
0.663073 0.984375 0.623245 O
0.674565 0.486155 0.131549 O
0.492280 0.669805 0.590751 O
0.493196 0.174290 0.077813 O
0.993103 0.175715 0.580590 O
0.992906 0.669614 0.078590 O
0.625373 0.164432 0.482430 O
0.624121 0.661794 0.981015 O
0.116442 0.657279 0.483863 O
0.130477 0.164425 0.983307 O
0.586446 0.497945 0.685282 O
0.585238 0.999660 0.169282 O
0.079386 0.000299 0.676868 O
0.084536 0.500071 0.180105 O
0.491290 0.620921 0.167347 O
0.487272 0.132516 0.670190 O
0.988058 0.127300 0.168762 O
0.987668 0.632119 0.674987 O
0.510656 0.363020 0.827891 O
0.508903 0.879639 0.322445 O
0.007936 0.865413 0.823229 O
0.012944 0.366378 0.328891 O
0.495672 0.313760 0.408279 O
0.494724 0.817866 0.914411 O
0.001450 0.821802 0.414268 O
0.995503 0.313243 0.914571 O
0.833321 0.507673 0.364352 O
0.832088 0.011047 0.863619 O
0.321821 0.008142 0.367050 O
0.333170 0.512026 0.865321 O
0.409833 0.500562 0.319196 O
0.415372 0.997280 0.815195 O
0.912802 0.994731 0.316554 O
0.918375 0.497702 0.821011 O
0.383201 0.824034 0.506469 O
0.366369 0.327446 0.006792 O
0.864479 0.325353 0.507335 O
0.874428 0.830579 0.007135 O
0.317461 0.412041 0.500661 O
0.318419 0.917430 0.999490 O
0.821187 0.910833 0.502034 O
0.826614 0.414300 0.002824 O
0.289432 0.665706 0.614795 O
0.293770 0.166210 0.124709 O
0.795067 0.158485 0.620885 O
0.792121 0.669594 0.118141 O
0.788571 0.595816 0.686642 O
0.787238 0.099446 0.184784 O
0.287192 0.096297 0.681243 O
0.287381 0.608309 0.187801 O
0.627800 0.301057 0.659179 O
0.610346 0.801635 0.151839 O
0.119895 0.804072 0.652385 O
0.114791 0.305107 0.151844 O
0.677865 0.784151 0.583809 O
0.684694 0.287987 0.089887 O
0.181011 0.285025 0.593348 O
0.179054 0.787357 0.088380 O
0.664233 0.627982 0.301280 O
0.658704 0.117117 0.799680 O
0.156624 0.125247 0.299663 O
0.161775 0.623374 0.800922 O
0.604579 0.699153 0.780953 O
0.597319 0.185983 0.280250 O
0.098935 0.188715 0.783853 O
0.093105 0.689547 0.282418 O
0.404261 0.312604 0.207833 O
0.393788 0.808711 0.710652 O
0.905085 0.808526 0.207838 O
0.896761 0.311254 0.708103 O
0.392306 0.701294 0.333318 O
0.370273 0.193159 0.839135 O
0.879485 0.190306 0.341100 O
0.869196 0.694069 0.842639 O
0.214899 0.393057 0.305780 O
0.208456 0.899986 0.808856 O
0.709074 0.890089 0.305504 O
0.711591 0.398777 0.815764 O
0.819631 0.863832 0.702820 O
0.835458 0.364275 0.200791 O
0.327780 0.366829 0.702116 O
0.327354 0.869188 0.197007 O
0.310294 0.208407 0.401476 O
0.309969 0.711129 0.903872 O
0.817738 0.707700 0.399103 O
0.810301 0.209606 0.897744 O
0.695560 0.334316 0.372856 O
0.692074 0.843392 0.890965 O
0.200783 0.823663 0.384217 O
0.190391 0.342750 0.880864 O
