Ca1 Cr4 P6 O24                          
   1.00000000000000     
     2.6703623772309824    6.8607137005844132    4.5575841839953695
     0.3937090780920828    0.2137946067163528    8.6561479393953817
     7.3741709244949094    0.2248934777633723    4.4919540502623034
   Ca   Cr   P    O 
     1     4     6    24
Direct
  0.4802882691186142  0.5021334754881794  0.5100106847224313
  0.6441122511839784  0.6411745482914664  0.6432871445303665
  0.1458523737972590  0.1435276619942958  0.1399105184322173
  0.8558592709251300  0.8493820629877151  0.8509956276492139
  0.3509697824265109  0.3510613724335985  0.3548515140408465
  0.2470000399566887  0.5281483624583743  0.9617781073468762
  0.0329404704805208  0.7488828935163162  0.4649856064089148
  0.9611224914727681  0.2479498088679482  0.5273322270994105
  0.4683994521747188  0.0318433131617588  0.7475649761283361
  0.5293419697934221  0.9639827081382041  0.2472521908735827
  0.7468176997030378  0.4663964421402148  0.0334401407910786
  0.6036903103018827  0.7554966040663407  0.3967793566318180
  0.3178859952859224  0.0112534299715934  0.9616377286663893
  0.3917222601176512  0.6120177400630987  0.7555631554532969
  0.9591269907460673  0.3189927816744484  0.0104155915265363
  0.7507175445139712  0.3916283680919743  0.6034080923584072
  0.0096195083050001  0.9585717284596867  0.3141768857563465
  0.9814963284481852  0.0334621219244372  0.6732831514405508
  0.6014802894785433  0.3930666600364778  0.2428524650837896
  0.6799008423580062  0.9847734912076422  0.0379392911495084
  0.2401235337431574  0.6006346712466576  0.3843649028196532
  0.0346361431035480  0.6798880911141552  0.9864837379694472
  0.3875036576002145  0.2411412909184614  0.6028307566017647
  0.2778057852786218  0.3352482895203033  0.9646850301108796
  0.8763018875148504  0.6900737770886777  0.5001211831928134
  0.9857953005502286  0.2758412154797055  0.3237216514580960
  0.4931217724264651  0.8775276895599534  0.6962212797838357
  0.3302338995463917  0.9799251151194411  0.2752602468778762
  0.6930300948059458  0.4889791365693707  0.8785219240301660
  0.3024166251633421  0.4923682120897668  0.1208017158967289
  0.0301828909657354  0.7150919259343804  0.6601931464926954
  0.1147478439760382  0.2963540191804310  0.5086253122032062
  0.6652185649972203  0.0177442936343811  0.7203996682813444
  0.5019479850796449  0.1187476490098539  0.3045553929390303
  0.7209898746607445  0.6690890485607164  0.0081495952525584
 
  0.00000000E+00  0.00000000E+00  0.00000000E+00
  0.00000000E+00  0.00000000E+00  0.00000000E+00
  0.00000000E+00  0.00000000E+00  0.00000000E+00
  0.00000000E+00  0.00000000E+00  0.00000000E+00
  0.00000000E+00  0.00000000E+00  0.00000000E+00
  0.00000000E+00  0.00000000E+00  0.00000000E+00
  0.00000000E+00  0.00000000E+00  0.00000000E+00
  0.00000000E+00  0.00000000E+00  0.00000000E+00
  0.00000000E+00  0.00000000E+00  0.00000000E+00
  0.00000000E+00  0.00000000E+00  0.00000000E+00
  0.00000000E+00  0.00000000E+00  0.00000000E+00
  0.00000000E+00  0.00000000E+00  0.00000000E+00
  0.00000000E+00  0.00000000E+00  0.00000000E+00
  0.00000000E+00  0.00000000E+00  0.00000000E+00
  0.00000000E+00  0.00000000E+00  0.00000000E+00
  0.00000000E+00  0.00000000E+00  0.00000000E+00
  0.00000000E+00  0.00000000E+00  0.00000000E+00
  0.00000000E+00  0.00000000E+00  0.00000000E+00
  0.00000000E+00  0.00000000E+00  0.00000000E+00
  0.00000000E+00  0.00000000E+00  0.00000000E+00
  0.00000000E+00  0.00000000E+00  0.00000000E+00
  0.00000000E+00  0.00000000E+00  0.00000000E+00
  0.00000000E+00  0.00000000E+00  0.00000000E+00
  0.00000000E+00  0.00000000E+00  0.00000000E+00
  0.00000000E+00  0.00000000E+00  0.00000000E+00
  0.00000000E+00  0.00000000E+00  0.00000000E+00
  0.00000000E+00  0.00000000E+00  0.00000000E+00
  0.00000000E+00  0.00000000E+00  0.00000000E+00
  0.00000000E+00  0.00000000E+00  0.00000000E+00
  0.00000000E+00  0.00000000E+00  0.00000000E+00
  0.00000000E+00  0.00000000E+00  0.00000000E+00
  0.00000000E+00  0.00000000E+00  0.00000000E+00
  0.00000000E+00  0.00000000E+00  0.00000000E+00
  0.00000000E+00  0.00000000E+00  0.00000000E+00
  0.00000000E+00  0.00000000E+00  0.00000000E+00
