Ca1 Fe4 S6 O24                          
   1.00000000000000     
     7.6064569999999998    0.1270440000000000    4.4708730000000001
     2.6034809999999999    7.1459630000000001    4.5098690000000001
     0.1709760000000000    0.1655870000000000    8.8278669999999995
   Ca   Fe   S    O 
     1     4     6    24
Direct
  0.2519821222918567  0.8716754251480954  0.6063196555870843
  0.6573894362196160  0.6336838188535803  0.6505677283230534
  0.1378433950993324  0.1465223757367115  0.1353950615229588
  0.8418710047920944  0.8383293939834828  0.8522605758268996
  0.3645085360818416  0.3437934975035046  0.3539112664123359
  0.9524515321040572  0.2511159199425103  0.5249059593519878
  0.4507962456308595  0.0288988478806446  0.7467802966843662
  0.5436997939402270  0.9631491341885173  0.2417307250993629
  0.7494826457595730  0.4493076159058754  0.0478686025922266
  0.2535862841630743  0.5286573082213035  0.9564599699036700
  0.0509694889004997  0.7453893921707992  0.4539285757053194
  0.4132773389338195  0.5637041114234180  0.7760993224754056
  0.9243155746613251  0.2848501571499210  0.0334481504886843
  0.8008669035895797  0.4075042081203746  0.5767911328723677
  0.0539288856249336  0.9238833842995834  0.2971684816539049
  0.5831298659917188  0.7814529572941831  0.4007073704945855
  0.3161881364589104  0.0261891080092223  0.9347792378469513
  0.6802715832054145  0.9522902837344583  0.0596984749503104
  0.2192644138150301  0.5889001915122841  0.4033341251524225
  0.0907708053028766  0.7075545780133987  0.9301592903497221
  0.3963383346178918  0.2169747855099161  0.6052788493988051
  0.9334902770030512  0.0688915762390564  0.6842733634021188
  0.6021694325895408  0.4056257969628593  0.2307797133727356
  0.9584247374155418  0.2546659228184353  0.3544225406965203
  0.4467517086496535  0.8884811356798548  0.7030524732738759
  0.3488124713075382  0.0016860224595766  0.2611498796992709
  0.6829863049440139  0.5067855568803714  0.8976964366695320
  0.2199543133231499  0.3722593800250745  0.9798627630818647
  0.8787476986562699  0.7169202206022014  0.5063986730605282
  0.1397019894690755  0.2409198601114692  0.4957089352684951
  0.6420526249566206  0.9751620546856924  0.7339862729254915
  0.5389021712496106  0.1125835057602386  0.2728588824629952
  0.7877922966981123  0.6047154942214319  0.0231866474183977
  0.2941391804038522  0.4903917071809383  0.1154895355768148
  0.0522580051533973  0.7508384661655425  0.6193164834713644
 
             NaN             NaN             NaN
             NaN             NaN             NaN
             NaN             NaN             NaN
             NaN             NaN             NaN
             NaN             NaN             NaN
             NaN             NaN             NaN
             NaN             NaN             NaN
             NaN             NaN             NaN
             NaN             NaN             NaN
             NaN             NaN             NaN
             NaN             NaN             NaN
             NaN             NaN             NaN
             NaN             NaN             NaN
             NaN             NaN             NaN
             NaN             NaN             NaN
             NaN             NaN             NaN
             NaN             NaN             NaN
             NaN             NaN             NaN
             NaN             NaN             NaN
             NaN             NaN             NaN
             NaN             NaN             NaN
             NaN             NaN             NaN
             NaN             NaN             NaN
             NaN             NaN             NaN
             NaN             NaN             NaN
             NaN             NaN             NaN
             NaN             NaN             NaN
             NaN             NaN             NaN
             NaN             NaN             NaN
             NaN             NaN             NaN
             NaN             NaN             NaN
             NaN             NaN             NaN
             NaN             NaN             NaN
             NaN             NaN             NaN
             NaN             NaN             NaN
