V2 P8                                   
   1.00000000000000     
     4.9254180706437625    0.0000281465171283   -1.9039443393896505
     0.0284739150902204   -0.0005130162327665   -5.8997104349179326
     2.4629233871895160    5.4986937452538767   -0.9514902515729686
   V    P 
     2     8
Direct
  0.0619233806411117  0.2501762299389938  0.8759061470506850
  0.9380339640053137  0.7497968705136415  0.1240940310856047
  0.3682295690329838  0.8222530610816037  0.8172136456859889
  0.8144797703402560  0.6778013106275935  0.8172929984439961
  0.6317824858623879  0.1777570460158273  0.1827702918246956
  0.1855189918102198  0.3221988008931547  0.1827181906386741
  0.5011262197020159  0.3116748148505764  0.5514057304427098
  0.9474073701284809  0.1883411008230524  0.5514587596798890
  0.4988863742836713  0.6883324699547586  0.4485982598636440
  0.0526118741935662  0.8116682953007910  0.4485419452841128
 
  0.00000000E+00  0.00000000E+00  0.00000000E+00
  0.00000000E+00  0.00000000E+00  0.00000000E+00
  0.00000000E+00  0.00000000E+00  0.00000000E+00
  0.00000000E+00  0.00000000E+00  0.00000000E+00
  0.00000000E+00  0.00000000E+00  0.00000000E+00
  0.00000000E+00  0.00000000E+00  0.00000000E+00
  0.00000000E+00  0.00000000E+00  0.00000000E+00
  0.00000000E+00  0.00000000E+00  0.00000000E+00
  0.00000000E+00  0.00000000E+00  0.00000000E+00
  0.00000000E+00  0.00000000E+00  0.00000000E+00
