Ca4 Mn4 P6 O24                          
   1.00000000000000     
     2.6497989999999998    7.6601730000000003    4.4035099999999998
    -0.0096210000000000    0.1977560000000000    8.6290560000000003
     7.6268050000000001    0.2376070000000000    4.1937530000000001
   Ca   Mn   P    O 
     4     4     6    24
Direct
  0.3180620991641829  0.7217851131272731  0.5464706909114820
  0.9312708985791098  0.9968075533096952  0.0427246276034655
  0.3851204729061498  0.7330189541040748  0.0892365758265889
  0.1287067802599736  0.3756405150937236  0.7652468971138969
  0.6445597785411739  0.6428830012909789  0.6463099015378629
  0.1578774077279123  0.1407014348311434  0.1684457690883135
  0.8482293462574179  0.8664753509569079  0.8255577669146525
  0.3368745762943830  0.3093494687386769  0.3670479931689313
  0.2493567186165196  0.5445691048380993  0.9583557302094637
  0.0316261139074862  0.7645927428785017  0.4464165484558674
  0.9463899896665076  0.2502703228937141  0.5775521827689575
  0.4544709739832050  0.0371735106486402  0.7399956165275881
  0.5615268797602421  0.9222854346642685  0.2388467084717471
  0.7528443351359102  0.4859177007585841  0.0179602013486626
  0.5818080430571630  0.7620981761993849  0.4185112957803336
  0.2749804591293555  0.0614094245262520  0.9117964843349421
  0.4184805502881922  0.5392648794337264  0.7829964948514915
  0.8900618986378045  0.2871233181137419  1.0301662998697532
  0.7825424397038272  0.4247080506277697  0.5804587790045925
  0.0761319748433663  0.9031820315426878  0.2473417387803639
  0.8925449673407925  0.0900545454989186  0.7596823167871580
  0.6156262909233320  0.5226734700510812  0.1987912584517813
  0.7362075349292264  0.8722812381452300  0.0787669641468315
  0.2090092121208455  0.5937282578741543  0.4482643053709158
  0.1128285277840819  0.7423736414736498  0.9101357230254258
  0.4258215624528722  0.2215170876630354  0.5834990194144821
  0.1875608876467769  0.3928463870786018  0.9904213701312730
  0.8727381006722013  0.7209011264455579  0.4997328448679377
  0.0166625073914403  0.2002188053941895  0.4042667622002001
  0.4701852541059094  0.8696477211969276  0.7043011475558413
  0.3974854525546179  0.9247189001380653  0.2275205840638674
  0.6466372616134743  0.5383432023399997  0.8981613161140185
  0.2806285885894512  0.5134428455629094  0.1300483661622569
  0.0137887122190604  0.8436999983185030  0.5840944891080602
  0.0960347744421361  0.2729161592996979  0.5892469545383184
  0.6059240290400256  0.9819275825983912  0.7985977825792888
  0.5355334301085318  0.1078770744031567  0.2433772174936240
  0.8737845539862149  0.6111071772646581  0.9000012778693653
 
             NaN             NaN             NaN
             NaN             NaN             NaN
             NaN             NaN             NaN
             NaN             NaN             NaN
             NaN             NaN             NaN
             NaN             NaN             NaN
             NaN             NaN             NaN
             NaN             NaN             NaN
             NaN             NaN             NaN
             NaN             NaN             NaN
             NaN             NaN             NaN
             NaN             NaN             NaN
             NaN             NaN             NaN
             NaN             NaN             NaN
             NaN             NaN             NaN
             NaN             NaN             NaN
             NaN             NaN             NaN
             NaN             NaN             NaN
             NaN             NaN             NaN
             NaN             NaN             NaN
             NaN             NaN             NaN
             NaN             NaN             NaN
             NaN             NaN             NaN
             NaN             NaN             NaN
             NaN             NaN             NaN
             NaN             NaN             NaN
             NaN             NaN             NaN
             NaN             NaN             NaN
             NaN             NaN             NaN
             NaN             NaN             NaN
             NaN             NaN             NaN
             NaN             NaN             NaN
             NaN             NaN             NaN
             NaN             NaN             NaN
             NaN             NaN             NaN
             NaN             NaN             NaN
             NaN             NaN             NaN
             NaN             NaN             NaN
