Ca4 Mn4 P6 O24
1.0
2.649799 7.660173 4.403510
-0.009621 0.197756 8.629056
7.626805 0.237607 4.193753
Ca Mn P O
4 4 6 24
direct
0.375925 0.706101 0.573210 Ca
0.904586 0.987631 0.079873 Ca
0.373945 0.743943 0.106357 Ca
0.139288 0.391201 0.754891 Ca
0.635879 0.653966 0.635997 Mn
0.154920 0.147594 0.177029 Mn
0.847604 0.858393 0.832067 Mn
0.370711 0.322388 0.345825 Mn
0.246290 0.551201 0.955329 P
0.030235 0.768156 0.443965 P
0.948919 0.244381 0.589175 P
0.456291 0.045279 0.733081 P
0.555342 0.912399 0.247392 P
0.747774 0.481934 0.002933 P
0.573231 0.743819 0.422449 O
0.282979 0.066662 0.906531 O
0.393209 0.563922 0.762507 O
0.884941 0.289269 0.996200 O
0.785156 0.417707 0.598587 O
0.073343 0.920367 0.251768 O
0.900299 0.078339 0.768853 O
0.610107 0.487507 0.195762 O
0.725885 0.863929 0.083385 O
0.199031 0.592647 0.431876 O
0.097379 0.744811 0.941681 O
0.432892 0.234321 0.579970 O
0.179619 0.397468 -0.000696 O
0.863478 0.746466 0.478488 O
1.003720 0.193174 0.421482 O
0.467002 0.894445 0.677242 O
0.388897 0.937503 0.227514 O
0.635855 0.567602 0.879613 O
0.307851 0.507002 0.110657 O
0.015198 0.822586 0.598420 O
0.107251 0.259319 0.589197 O
0.611775 -0.014371 0.784181 O
0.548153 0.086573 0.259835 O
0.863814 0.605149 0.914653 O
