Ca1 Fe4 P6 O24                          
   1.00000000000000     
     2.7075520000000002    6.9518399999999998    4.6460580000000000
     0.3740530000000000    0.2823240000000000    8.7731650000000005
     7.4041180000000004    0.3000560000000000    4.6294199999999996
   Ca   Fe   P    O 
     1     4     6    24
Direct
  0.3075719852366657  0.7090418248064015  0.5405899298883095
  0.6554427068322923  0.6340878810862013  0.6456409906552183
  0.1450844883472704  0.1589167636834131  0.1447592518573350
  0.8357461813018603  0.8489009419211782  0.8476510083871995
  0.3553531716882293  0.3500405216445119  0.3645940616127367
  0.2383353752623927  0.5272877775747382  0.9787144516695100
  0.0170360985900667  0.7660815584221806  0.4498150496119697
  0.9727057237163097  0.2344975702993324  0.5314435301090175
  0.4478377216942642  0.0335587244189302  0.7634165628399969
  0.5441383280182077  0.9746462084185759  0.2311786819746896
  0.7532501413226520  0.4634742591280098  0.0438288314144079
  0.5888443178616696  0.7724824765630780  0.3947109338325317
  0.3033945901658990  0.0135270456498266  0.9805366444050949
  0.4087017688078199  0.5797702235734123  0.7866253579044068
  0.9698979059205389  0.3167008060143334  0.0186615266458100
  0.7754249928611711  0.3817346342800107  0.6073360042475233
  0.0117664480454789  0.9790676918072091  0.3284264047394019
  0.9880420144667612  0.0149982479866771  0.6533587834154684
  0.6049149911935926  0.3950002330688145  0.2450812821497157
  0.6985532210871644  0.9780788218158774  0.0209401477925154
  0.2285588879582742  0.6213307965990896  0.3895138435970624
  0.0458477476205461  0.6858954843072448  0.9441549029615057
  0.3815345801526598  0.2408443238002796  0.6200567442532523
  0.2770449214490072  0.3289124206783948  0.9782102767629318
  0.8671412568006461  0.7355763101409354  0.4498548924335238
  0.9925358350844913  0.2887077387542470  0.3165223160989500
  0.4773249844316466  0.8738420514016351  0.7207115798900586
  0.3379712837343620  0.9957187491244849  0.2634502974237473
  0.7277332424463258  0.4942210584531636  0.8711581265654298
  0.2442290674090111  0.5089120650671762  0.1552104563841946
 -0.0154808144601082  0.7161801515633397  0.6695747072786608
  0.1447158966902876  0.2417398399341245  0.5227981307885440
  0.6528640317232484  1.0105595645527492  0.7359985035034072
  0.5301146729178916  0.1380471952888105  0.2554164362248897
  0.7207766661661257  0.6647884497791009  0.0321051387368108
 
             NaN             NaN             NaN
             NaN             NaN             NaN
             NaN             NaN             NaN
             NaN             NaN             NaN
             NaN             NaN             NaN
             NaN             NaN             NaN
             NaN             NaN             NaN
             NaN             NaN             NaN
             NaN             NaN             NaN
             NaN             NaN             NaN
             NaN             NaN             NaN
             NaN             NaN             NaN
             NaN             NaN             NaN
             NaN             NaN             NaN
             NaN             NaN             NaN
             NaN             NaN             NaN
             NaN             NaN             NaN
             NaN             NaN             NaN
             NaN             NaN             NaN
             NaN             NaN             NaN
             NaN             NaN             NaN
             NaN             NaN             NaN
             NaN             NaN             NaN
             NaN             NaN             NaN
             NaN             NaN             NaN
             NaN             NaN             NaN
             NaN             NaN             NaN
             NaN             NaN             NaN
             NaN             NaN             NaN
             NaN             NaN             NaN
             NaN             NaN             NaN
             NaN             NaN             NaN
             NaN             NaN             NaN
             NaN             NaN             NaN
             NaN             NaN             NaN
