Ca1 Fe4 P6 O24
1.0
2.707552 6.951840 4.646058
0.374053 0.282324 8.773165
7.404118 0.300056 4.629420
Ca Fe P O
1 4 6 24
direct
0.374978 0.688907 0.563775 Ca
0.652298 0.639586 0.641851 Fe
0.147284 0.150324 0.148004 Fe
0.841190 0.842079 0.847276 Fe
0.355527 0.352977 0.353639 Fe
0.237814 0.530427 0.968314 P
0.034937 0.758229 0.457020 P
0.958404 0.244091 0.529272 P
0.453743 0.029462 0.760112 P
0.536454 0.969206 0.233344 P
0.761117 0.453180 0.035862 P
0.595969 0.769441 0.389931 O
0.317967 0.010361 0.978189 O
0.393749 0.593412 0.768803 O
0.975597 0.307175 0.013204 O
0.761930 0.396509 0.594599 O
0.016983 0.974333 0.318650 O
0.962477 0.032682 0.672056 O
0.613113 0.386536 0.240273 O
0.677690 0.977885 0.020276 O
0.237741 0.611684 0.386075 O
0.033366 0.690065 0.965230 O
0.385116 0.234684 0.614686 O
0.270541 0.330728 0.979732 O
0.870155 0.729785 0.478288 O
0.979914 0.285043 0.319715 O
0.464514 0.872524 0.726047 O
0.325151 0.990539 0.278960 O
0.726237 0.482622 0.870448 O
0.258756 0.510124 0.137547 O
0.019081 0.718147 0.664781 O
0.129052 0.253647 0.518979 O
0.665927 -0.004007 0.720307 O
0.521274 0.132130 0.260179 O
0.730887 0.655095 0.020360 O
