Ca2 Co4 S6 O24                          
   1.00000000000000     
     7.6034329999999999    0.0502210000000000    4.4829100000000004
     2.6106449999999999    7.0504519999999999    4.4941160000000000
     0.1570170000000000    0.0155560000000000    8.8061889999999998
   Ca   Co   S    O 
     2     4     6    24
Direct
  0.4971829936305200  0.5036188558780614  0.4969845564181993
  0.9936482439865589  0.0032071882971649  0.0008346623422646
  0.6380845263745185  0.6563117382523880  0.6464129829752776
  0.1428312228937614  0.1557312412527441  0.1434148635167955
  0.8457596893815426  0.8526786577384412  0.8538676843962468
  0.3452870294277818  0.3573284107461970  0.3529690975752703
  0.9549694040773546  0.2583728351126106  0.5426339753588774
  0.4439597227598059  0.0466429325736041  0.7504718495148871
  0.5402772127143788  0.9630938378853037  0.2462741648601199
  0.7364127073006206  0.4563516043659807  0.0499875770389885
  0.2416285287000352  0.5510119637649159  0.9510893432194361
  0.0394779149669550  0.7560680020671366  0.4559221409194860
  0.4115304428384414  0.5545938446493818  0.7752419966909371
  0.8869729051891087  0.2678804853564385  0.0863772818392795
  0.7780847314865814  0.4277855998223279  0.5464528620987232
  0.0775251723624524  0.9055793198537486  0.2663988471600195
  0.5441989026332764  0.7840331103687446  0.4120885593011376
  0.2541352409640672  0.0880988516608183  0.8987449638928343
  0.7287899129317763  0.9268957070733931  0.0936027227670917
  0.2142480454220626  0.5853247564300150  0.4538147233275868
  0.0926233769077271  0.7416418979718046  0.9148187275355117
  0.4484209143043820  0.2239674396069788  0.5841631870875372
  0.9175250840653095  0.1078843165166865  0.7304005906964345
  0.5639653593484057  0.4491881031577970  0.2255139505172821
  0.9967594120996484  0.1997757482145961  0.3946143201133100
  0.4619116253382416  0.9003186128296566  0.7018835330098349
  0.3939675948172199  1.0080906133669607  0.1848202102146596
  0.6992168167101350  0.4895271269368285  0.8914871106864188
  0.1798671568608989  0.4081606247094143  0.9834148833128670
  0.8835585498893955  0.7164691500543545  0.4853640103372592
  0.1083444821292275  0.3010453263411470  0.5170679489365824
  0.5909556867695621 -0.0103327128072000  0.8170203096851230
  0.5172887680943454  0.1136111673095187  0.2912012526958007
  0.7899266471848149  0.6022004087149795  0.0230678310538794
  0.2809908621922203  0.5189970036364110  0.1077061651446583
  0.0015482832831944  0.8180476376410103  0.6008961989292896
 
             NaN             NaN             NaN
             NaN             NaN             NaN
             NaN             NaN             NaN
             NaN             NaN             NaN
             NaN             NaN             NaN
             NaN             NaN             NaN
             NaN             NaN             NaN
             NaN             NaN             NaN
             NaN             NaN             NaN
             NaN             NaN             NaN
             NaN             NaN             NaN
             NaN             NaN             NaN
             NaN             NaN             NaN
             NaN             NaN             NaN
             NaN             NaN             NaN
             NaN             NaN             NaN
             NaN             NaN             NaN
             NaN             NaN             NaN
             NaN             NaN             NaN
             NaN             NaN             NaN
             NaN             NaN             NaN
             NaN             NaN             NaN
             NaN             NaN             NaN
             NaN             NaN             NaN
             NaN             NaN             NaN
             NaN             NaN             NaN
             NaN             NaN             NaN
             NaN             NaN             NaN
             NaN             NaN             NaN
             NaN             NaN             NaN
             NaN             NaN             NaN
             NaN             NaN             NaN
             NaN             NaN             NaN
             NaN             NaN             NaN
             NaN             NaN             NaN
             NaN             NaN             NaN
