Fe16 Si16 O48                           
   1.00000000000000     
    18.4437112373266636    0.0000107705966784    0.0000100718793071
     0.0000056682706725    9.0475183838150830   -0.0000168884434711
    -0.0000008017000732   -0.0000095689392991    5.2684584897709339
   Fe   Si   O 
    16    16    48
Direct
  0.8757089472378752  0.6556223447371679  0.6180814404034862
  0.3757068460841921  0.8443768709577313  0.3819180062076981
  0.1243015569934727  0.1556063444106144  0.8818546429186327
  0.6242988395502351  0.3443944312925922  0.1181458500474122
  0.1243016758837001  0.3443921321450318  0.3818572680796564
  0.6242988424498392  0.1556069150642898  0.6181443602815264
  0.8757088934270314  0.8443783781685781  0.1180813284929627
  0.3757068479694965  0.6556222198684267  0.8819170194596211
  0.8763218389457421  0.4863310767442570  0.1200973575563538
  0.3763207175906373  0.0136734610203106  0.8798964289755205
  0.1236875743201580  0.9862684741578249  0.3799349920128847
  0.6236852512222626  0.5137300636121083  0.6200628374042196
  0.1236899754268919  0.5137297115566710  0.8799450147536589
  0.6236867471443901  0.9862724281595803  0.1200581901708730
  0.8763228985183105  0.0136673370648168  0.6201010882162521
  0.3763216396506692  0.4863265293421648  0.3798906875110291
  0.7738466374109265  0.3387780320156111  0.4411750287484821
  0.2738485800287833  0.1612237519706028  0.5588258295751274
  0.2261327205545527  0.8387274484876102  0.0589510236302857
  0.7261326314985439  0.6612707182577324  0.9410510350076322
  0.2261328276055892  0.6612723692416154  0.5589481021187837
  0.7261327241336843  0.8387299434923037  0.4410515654375260
  0.7738471221992285  0.1612231588598121  0.9411729164753382
  0.2738497968646811  0.3387740238703003  0.0588277178761771
  0.9748484535620250  0.3347679095005915  0.7177021949289468
  0.4748509147090658  0.1652341148542007  0.2823072722123996
  0.0251715697645309  0.8347655099116551  0.7823653397927046
  0.5251744371847096  0.6652274188858627  0.2176323357356154
  0.0251713377830782  0.6652308023773088  0.2823663150908260
  0.5251742707742650  0.8347742196658743  0.7176332314982119
  0.9748482145147435  0.1652320151089910  0.2177013281032245
  0.4748508263178053  0.3347656695070427  0.7823075970356541
  0.6865879299993338  0.3403263550935165  0.4530352494812178
  0.1865899610681439  0.1596730236360315  0.5469651293930440
  0.3133841078926309  0.8402620623838288  0.0470399027486081
  0.8133844827980781  0.6597412023128442  0.9529582380440047
  0.3133839110655146  0.6597369663981851  0.5470396131308348
  0.8133844108951820  0.8402598012166393  0.4529594495739460
  0.6865885964742802  0.1596757466290342  0.9530334802627607
  0.1865909053251471  0.3403242333550764  0.0469675306841069
  0.8139717732937370  0.4960923615703905  0.4373464244620067
  0.3139699188881409  0.0039078211904737  0.5626541322964584
  0.1860242591386836  0.9960588130073447  0.0628365622871385
  0.6860199912191476  0.5039425314550741  0.9371669510580389
  0.1860247947739424  0.5039417434548952  0.5628386461046730
  0.6860206514681693  0.9960586464766692  0.4371664319475812
  0.8139718801545470  0.0039088449808276  0.9373443981801799
  0.3139703710066470  0.4960915461079551  0.0626544869030781
  0.8036347486656936  0.2315704439185780  0.6698454972638359
  0.3036340471102363  0.2684286224894166  0.3301541834191397
  0.1963173595906582  0.7316004101095004  0.8302344521969474
  0.6963143792453863  0.7684008324414506  0.1697648182012657
  0.1963170762292208  0.7683992229948942  0.3302347859431407
  0.6963142102146307  0.7316004543237895  0.6697652191288341
  0.8036347818000280  0.2684304379836178  0.1698462942550307
  0.3036341199963175  0.2315694282749376  0.8301528373661284
  0.0627252242895509  0.3365320415158948  0.7234694669893500
  0.5627139663474594  0.1634607585863606  0.2765314488510526
  0.9373099831165064  0.8365031122498436  0.7766446259049289
  0.4373015021167674  0.6634963845250681  0.2233601481005465
  0.9373130168960344  0.6634941577401676  0.2766439099390183
  0.4373012433800341  0.8365047232381357  0.7233619172355858
  0.0627250027705486  0.1634678026741696  0.2234686646724811
  0.5627139244429813  0.3365389986288889  0.7765327424403381
  0.9340384977999676  0.4831433891748560  0.8027092785870167
  0.4340311633999718  0.0168430967870776  0.1972848797458226
  0.0659726579482651  0.9831703906657978  0.6973024153368925
  0.5659663659160188  0.5168435126490110  0.3026908890284474
  0.0659734016203544  0.5168295671400358  0.1973066031435380
  0.5659663336282890  0.9831587162836541  0.8026916489702458
  0.9340385148580310  0.0168574483948305  0.3027086331004512
  0.4340318908192131  0.4831574183366953  0.6972829517323405
  0.9488049434363646  0.2073332668198447  0.9258239057946653
  0.4487967626620346  0.2926668970602506  0.0741833141464241
  0.0512352209096676  0.7073472514536050  0.5742221386679844
  0.5512262610213625  0.7926565286804035  0.4257669913423143
  0.0512349130430394  0.7926520405838318  0.0742299539035045
  0.5512265634750690  0.7073442248990034  0.9257663373454648
  0.9488050250075659  0.2926669008575900  0.4258252841980621
  0.4487967954602752  0.2073339949407327  0.5741817907328013
 
  0.00000000E+00  0.00000000E+00  0.00000000E+00
  0.00000000E+00  0.00000000E+00  0.00000000E+00
  0.00000000E+00  0.00000000E+00  0.00000000E+00
  0.00000000E+00  0.00000000E+00  0.00000000E+00
  0.00000000E+00  0.00000000E+00  0.00000000E+00
  0.00000000E+00  0.00000000E+00  0.00000000E+00
  0.00000000E+00  0.00000000E+00  0.00000000E+00
  0.00000000E+00  0.00000000E+00  0.00000000E+00
  0.00000000E+00  0.00000000E+00  0.00000000E+00
  0.00000000E+00  0.00000000E+00  0.00000000E+00
  0.00000000E+00  0.00000000E+00  0.00000000E+00
  0.00000000E+00  0.00000000E+00  0.00000000E+00
  0.00000000E+00  0.00000000E+00  0.00000000E+00
  0.00000000E+00  0.00000000E+00  0.00000000E+00
  0.00000000E+00  0.00000000E+00  0.00000000E+00
  0.00000000E+00  0.00000000E+00  0.00000000E+00
  0.00000000E+00  0.00000000E+00  0.00000000E+00
  0.00000000E+00  0.00000000E+00  0.00000000E+00
  0.00000000E+00  0.00000000E+00  0.00000000E+00
  0.00000000E+00  0.00000000E+00  0.00000000E+00
  0.00000000E+00  0.00000000E+00  0.00000000E+00
  0.00000000E+00  0.00000000E+00  0.00000000E+00
  0.00000000E+00  0.00000000E+00  0.00000000E+00
  0.00000000E+00  0.00000000E+00  0.00000000E+00
  0.00000000E+00  0.00000000E+00  0.00000000E+00
  0.00000000E+00  0.00000000E+00  0.00000000E+00
  0.00000000E+00  0.00000000E+00  0.00000000E+00
  0.00000000E+00  0.00000000E+00  0.00000000E+00
  0.00000000E+00  0.00000000E+00  0.00000000E+00
  0.00000000E+00  0.00000000E+00  0.00000000E+00
  0.00000000E+00  0.00000000E+00  0.00000000E+00
  0.00000000E+00  0.00000000E+00  0.00000000E+00
  0.00000000E+00  0.00000000E+00  0.00000000E+00
  0.00000000E+00  0.00000000E+00  0.00000000E+00
  0.00000000E+00  0.00000000E+00  0.00000000E+00
  0.00000000E+00  0.00000000E+00  0.00000000E+00
  0.00000000E+00  0.00000000E+00  0.00000000E+00
  0.00000000E+00  0.00000000E+00  0.00000000E+00
  0.00000000E+00  0.00000000E+00  0.00000000E+00
  0.00000000E+00  0.00000000E+00  0.00000000E+00
  0.00000000E+00  0.00000000E+00  0.00000000E+00
  0.00000000E+00  0.00000000E+00  0.00000000E+00
  0.00000000E+00  0.00000000E+00  0.00000000E+00
  0.00000000E+00  0.00000000E+00  0.00000000E+00
  0.00000000E+00  0.00000000E+00  0.00000000E+00
  0.00000000E+00  0.00000000E+00  0.00000000E+00
  0.00000000E+00  0.00000000E+00  0.00000000E+00
  0.00000000E+00  0.00000000E+00  0.00000000E+00
  0.00000000E+00  0.00000000E+00  0.00000000E+00
  0.00000000E+00  0.00000000E+00  0.00000000E+00
  0.00000000E+00  0.00000000E+00  0.00000000E+00
  0.00000000E+00  0.00000000E+00  0.00000000E+00
  0.00000000E+00  0.00000000E+00  0.00000000E+00
  0.00000000E+00  0.00000000E+00  0.00000000E+00
  0.00000000E+00  0.00000000E+00  0.00000000E+00
  0.00000000E+00  0.00000000E+00  0.00000000E+00
  0.00000000E+00  0.00000000E+00  0.00000000E+00
  0.00000000E+00  0.00000000E+00  0.00000000E+00
  0.00000000E+00  0.00000000E+00  0.00000000E+00
  0.00000000E+00  0.00000000E+00  0.00000000E+00
  0.00000000E+00  0.00000000E+00  0.00000000E+00
  0.00000000E+00  0.00000000E+00  0.00000000E+00
  0.00000000E+00  0.00000000E+00  0.00000000E+00
  0.00000000E+00  0.00000000E+00  0.00000000E+00
  0.00000000E+00  0.00000000E+00  0.00000000E+00
  0.00000000E+00  0.00000000E+00  0.00000000E+00
  0.00000000E+00  0.00000000E+00  0.00000000E+00
  0.00000000E+00  0.00000000E+00  0.00000000E+00
  0.00000000E+00  0.00000000E+00  0.00000000E+00
  0.00000000E+00  0.00000000E+00  0.00000000E+00
  0.00000000E+00  0.00000000E+00  0.00000000E+00
  0.00000000E+00  0.00000000E+00  0.00000000E+00
  0.00000000E+00  0.00000000E+00  0.00000000E+00
  0.00000000E+00  0.00000000E+00  0.00000000E+00
  0.00000000E+00  0.00000000E+00  0.00000000E+00
  0.00000000E+00  0.00000000E+00  0.00000000E+00
  0.00000000E+00  0.00000000E+00  0.00000000E+00
  0.00000000E+00  0.00000000E+00  0.00000000E+00
  0.00000000E+00  0.00000000E+00  0.00000000E+00
  0.00000000E+00  0.00000000E+00  0.00000000E+00
