Ca1 Co4 S6 O24                          
   1.00000000000000     
     7.5200829999999996    0.1521190000000000    4.5702910000000001
     2.6603629999999998    7.0112889999999997    4.5791000000000004
     0.2577550000000000    0.1458960000000000    8.7798440000000006
   Ca   Co   S    O 
     1     4     6    24
Direct
  0.2566393363120145  0.8318538937149340  0.5747528721704712
  0.6523400547257846  0.6467998481206725  0.6449125901996625
  0.1359902380714207  0.1584259433342813  0.1339441937651578
  0.8330269238592741  0.8375748016395009  0.8564176362433988
  0.3600592089580293  0.3376224339300539  0.3610277338312960
  0.9641245342683402  0.2533475206900673  0.5196252160507776
  0.4392361617076204  0.0250927994260139  0.7551138899674329
  0.5560931493496334  0.9702162158902193  0.2316519782596376
  0.7414283294221653  0.4567544614394113  0.0577960481534026
  0.2593288506686118  0.5224050506712641  0.9507313930134439
  0.0388668000619226  0.7431768477617803  0.4627690804522409
  0.4263677410915674  0.5603461366744326  0.7686201818022323
  0.9195976432315380  0.2838763994239671  0.0497021325444396
  0.8005035596340502  0.3932119912447584  0.6060034694857533
  0.0500308631147169  0.9371823605318775  0.3462631122838284
  0.5920074786660071  0.7754983125020233  0.3841306006229658
  0.3047270231962838  0.0081787859221605  0.9544635445764335
  0.6982230700039761  0.9710043970939326  0.0405337700108762
  0.2160294050768009  0.6024671680039693  0.3840980303018866
  0.0924329825947038  0.7040956854217979  0.9222159609751963
  0.3825191693297795  0.2231201745900017  0.6212304734469766
  0.9534330788527449  0.0575270867575958  0.6480961857739017
  0.5853722777804184  0.4062219244273308  0.2400149146121728
  0.9740280774953087  0.3001343056580251  0.3285558290195656
  0.4402269109967427  0.8915144257076606  0.6997936403679968
  0.3589402960251267  0.0221783898053370  0.2426569045539718
  0.6917022705510153  0.5240647453077283  0.8935526064463101
  0.2382372981446123  0.3658018741430363  0.9549826169748664
  0.8700248702840354  0.7397670713228428  0.4735098884033158
  0.1480261649234774  0.2379503199839365  0.5058850062821287
  0.6352502596931384 -0.0319150495044560  0.7427259695142339
  0.5546902375033330  0.1053600449413095  0.2800644987663396
  0.7694976289306833  0.6069222984079806  0.0572686745726310
  0.2935171479462676  0.4751124610714967  0.1164464699817644
  1.0269722889327917  0.6993066309379371  0.6583633867379466
 
             NaN             NaN             NaN
             NaN             NaN             NaN
             NaN             NaN             NaN
             NaN             NaN             NaN
             NaN             NaN             NaN
             NaN             NaN             NaN
             NaN             NaN             NaN
             NaN             NaN             NaN
             NaN             NaN             NaN
             NaN             NaN             NaN
             NaN             NaN             NaN
             NaN             NaN             NaN
             NaN             NaN             NaN
             NaN             NaN             NaN
             NaN             NaN             NaN
             NaN             NaN             NaN
             NaN             NaN             NaN
             NaN             NaN             NaN
             NaN             NaN             NaN
             NaN             NaN             NaN
             NaN             NaN             NaN
             NaN             NaN             NaN
             NaN             NaN             NaN
             NaN             NaN             NaN
             NaN             NaN             NaN
             NaN             NaN             NaN
             NaN             NaN             NaN
             NaN             NaN             NaN
             NaN             NaN             NaN
             NaN             NaN             NaN
             NaN             NaN             NaN
             NaN             NaN             NaN
             NaN             NaN             NaN
             NaN             NaN             NaN
             NaN             NaN             NaN
