Ca1 Co4 S6 O24                          
   1.00000000000000     
     7.5200829999999996    0.1521190000000000    4.5702910000000001
     2.6603629999999998    7.0112889999999997    4.5791000000000004
     0.2577550000000000    0.1458960000000000    8.7798440000000006
   Ca   Co   S    O 
     1     4     6    24
Direct
  0.2713399911282850  0.7743849249114944  0.5634923240067318
  0.6589627124695756  0.6347877409441367  0.6455555439929245
  0.1420034175681731  0.1491428528054920  0.1389271765746577
  0.8326709374654276  0.8531973403057621  0.8524919853679620
  0.3609683737243278  0.3500425464206067  0.3587245961301981
  0.9690260928371516  0.2456830541362457  0.5213561669394788
  0.4488194553629868  0.0345944853404985  0.7498401770462960
  0.5476346568834976  0.9674661425320985  0.2427516395904669
  0.7433269545684962  0.4586302945034548  0.0505255956060131
  0.2561276750011748  0.5289899404433236  0.9608824962359127
  0.0333602479432781  0.7438902908317663  0.4540214247538789
  0.4251016276178353  0.5610024918924209  0.7781461758326853
  0.9275868023168036  0.2987444562450127  0.0376120515881601
  0.7868681870483240  0.3748472304331353  0.6101072968150189
  0.0206882024669733  0.9416295096582337  0.3216014461899615
  0.5948386449147126  0.7709305753840858  0.3908239956574591
  0.3176950703691478  0.0156004505637962  0.9526627436198556
  0.6837269713388606  0.9742557251709625  0.0487320755758412
  0.2338260962881175  0.6120076156759859  0.3943632490869711
  0.0888259050812167  0.7024473284859725  0.9194196722094378
  0.3728006709294787  0.2314931676984897  0.6220207800977954
  0.9909705479712964  0.0402766319495228  0.6513438700477280
  0.5946658319758841  0.4006249741592712  0.2402663527411046
  0.9736285985580950  0.2738101792452797  0.3381191033968088
  0.4615403598668962  0.8900891072269455  0.7026892747126933
  0.3508719823550874  1.0043825307009520  0.2637154898226942
  0.6875824020669333  0.5074232216208541  0.8968112034089732
  0.2442642796287030  0.3598763370859500  0.9810448373439903
  0.8975390804815875  0.6915164806642277  0.4632299800928387
  0.1333168674913474  0.2770198045742362  0.4899119207015582
  0.6407987126942892  0.0037010511915128  0.7256290838794154
  0.5400317973357313  0.1074323718304875  0.2880928421128471
  0.7530459293984233  0.6249524062573852  0.0404752608934477
  0.2817371176884644  0.5090432415960554  0.1206304232434540
 -0.0034838231294404  0.7233251093621436  0.6506700675736289
 
             NaN             NaN             NaN
             NaN             NaN             NaN
             NaN             NaN             NaN
             NaN             NaN             NaN
             NaN             NaN             NaN
             NaN             NaN             NaN
             NaN             NaN             NaN
             NaN             NaN             NaN
             NaN             NaN             NaN
             NaN             NaN             NaN
             NaN             NaN             NaN
             NaN             NaN             NaN
             NaN             NaN             NaN
             NaN             NaN             NaN
             NaN             NaN             NaN
             NaN             NaN             NaN
             NaN             NaN             NaN
             NaN             NaN             NaN
             NaN             NaN             NaN
             NaN             NaN             NaN
             NaN             NaN             NaN
             NaN             NaN             NaN
             NaN             NaN             NaN
             NaN             NaN             NaN
             NaN             NaN             NaN
             NaN             NaN             NaN
             NaN             NaN             NaN
             NaN             NaN             NaN
             NaN             NaN             NaN
             NaN             NaN             NaN
             NaN             NaN             NaN
             NaN             NaN             NaN
             NaN             NaN             NaN
             NaN             NaN             NaN
             NaN             NaN             NaN
