Ca2 Mn4 S6 O24
1.0
7.709428 0.097810 4.502203
2.630823 7.247337 4.502201
0.137687 0.097811 8.926719
Ca Mn S O
2 4 6 24
direct
0.497449 0.497448 0.497449 Ca
0.997448 0.997449 0.997448 Ca
0.648236 0.648238 0.648235 Mn
0.148236 0.148236 0.148237 Mn
0.846340 0.846341 0.846340 Mn
0.346341 0.346340 0.346340 Mn
0.944995 0.247492 0.550310 S
0.444994 0.050309 0.747491 S
0.550308 0.944994 0.247491 S
0.747491 0.444994 0.050312 S
0.247491 0.550309 0.944993 S
0.050310 0.747490 0.444993 S
0.402545 0.567886 0.763856 O
0.902539 0.263861 0.067887 O
0.763859 0.402543 0.567886 O
0.067888 0.902545 0.263854 O
0.567887 0.763858 0.402542 O
0.263857 0.067887 0.902543 O
0.731350 0.927030 0.092436 O
0.231357 0.592438 0.427023 O
0.092439 0.731353 0.927025 O
0.427029 0.231351 0.592437 O
0.927025 0.092438 0.731354 O
0.592441 0.427024 0.231354 O
0.983789 0.190540 0.404166 O
0.483784 0.904165 0.690542 O
0.404165 0.983785 0.190542 O
0.690539 0.483789 0.904169 O
0.190542 0.404167 0.983781 O
0.904165 0.690541 0.483781 O
0.090631 0.304662 0.512493 O
0.590629 0.012489 0.804665 O
0.512489 0.090627 0.304667 O
0.804660 0.590629 0.012495 O
0.304664 0.512487 0.090630 O
0.012488 0.804662 0.590632 O
