Ca4 Ni4 P6 O24                          
   1.00000000000000     
     2.5400160000000001    7.2379449999999999    4.3464539999999996
    -0.0280500000000000    0.0203280000000000    8.6886650000000003
     7.6143820000000000    0.0448500000000000    4.2785140000000004
   Ca   Ni   P    O 
     4     4     6    24
Direct
  0.3391372096725097  0.7370968399410163  0.5384155114466779
  0.9917330062250659  0.0094024042350727  0.9628231443680820
  0.3958479774071319  0.7287026749018366  0.1008727199339270
  0.1330522296106273  0.3901791180102607  0.7598749533613375
  0.6446366289803085  0.6249561565272431  0.6579451729603301
  0.1373393751038399  0.1313412114409858  0.1711506147623667
  0.8494731395840851  0.8603216905852805  0.8284633887111937
  0.3250050667347010  0.3304106825455793  0.3703227840564489
  0.2464071415611301  0.5405014924495425  0.9559662031758365
  0.0213062146324304  0.7334215326866287  0.4611464864660048
  0.9495256535172855  0.2585735018394957  0.5584265225340973
  0.4349876549833100  0.0189479170836822  0.7602972324647754
  0.5595591404065693  0.9564295932387994  0.2305277165839005
  0.7618218286006363  0.4648748596456579  0.0314693623803378
  0.5790761717152999  0.8263609814949132  0.4199219347034644
  0.2483701224763351  0.0780598153627687  0.9179318424167001
  0.4259699602379329  0.5171008690815607  0.7817700746596370
  0.8928623993780533  0.2667708023839852  0.0488765320824421
  0.7958448585490450  0.4357910011506617  0.5173387171939678
  0.0659496171280349  0.8821376961024365  0.2395683046797971
  0.8659837299222936  0.1164396803127946  0.7390978270710753
  0.6293203828608116  0.5033878404074562  0.2197192297909058
  0.7444916041482376  0.9073557882058571  0.0833669017517610
  0.2404859889829699  0.5925593686707693  0.4424530355450211
  0.1164332764784380  0.7382842740942197  0.8740288522477493
  0.4381695779779712  0.2008088937177083  0.5883948281977245
  0.1802265062026826  0.3862201706458308  0.0052283797989851
  0.9132753285286914  0.6772129877197587  0.5303047257722140
  0.0713872728730597  0.1798326921498515  0.3999216544549463
  0.4128740476147789  0.8652305540107277  0.7452391751572878
  0.4106859273431273  0.9125495483583775  0.2229501891552614
  0.6327672126980149  0.5185920638955083  0.9286411576677185
  0.2628267494806156  0.5448251334353765  0.1163044265574923
  0.0262550237426413  0.8534575037335387  0.5660307629931806
  0.0812597476557381  0.2752432513597779  0.6173126391574818
  0.5863697884090555  0.9422273987269616  0.8303530825484939
  0.4918134811964254  0.1605879581585016  0.2134979445551218
  0.8788978962112399  0.5896524792494561  0.9128740101000632
 
             NaN             NaN             NaN
             NaN             NaN             NaN
             NaN             NaN             NaN
             NaN             NaN             NaN
             NaN             NaN             NaN
             NaN             NaN             NaN
             NaN             NaN             NaN
             NaN             NaN             NaN
             NaN             NaN             NaN
             NaN             NaN             NaN
             NaN             NaN             NaN
             NaN             NaN             NaN
             NaN             NaN             NaN
             NaN             NaN             NaN
             NaN             NaN             NaN
             NaN             NaN             NaN
             NaN             NaN             NaN
             NaN             NaN             NaN
             NaN             NaN             NaN
             NaN             NaN             NaN
             NaN             NaN             NaN
             NaN             NaN             NaN
             NaN             NaN             NaN
             NaN             NaN             NaN
             NaN             NaN             NaN
             NaN             NaN             NaN
             NaN             NaN             NaN
             NaN             NaN             NaN
             NaN             NaN             NaN
             NaN             NaN             NaN
             NaN             NaN             NaN
             NaN             NaN             NaN
             NaN             NaN             NaN
             NaN             NaN             NaN
             NaN             NaN             NaN
             NaN             NaN             NaN
             NaN             NaN             NaN
             NaN             NaN             NaN
