Ca1 Fe4 S6 O24                          
   1.00000000000000     
     7.5503229999999997    0.2386510000000000    4.6262330000000000
     2.7152550000000000    7.0389980000000003    4.6231030000000004
     0.3555070000000000    0.2471140000000000    8.8518380000000008
   Ca   Fe   S    O 
     1     4     6    24
Direct
  0.4515933011286341  0.5482560307898019  0.5000181443031498
  0.6423621363991782  0.6517845366308106  0.6531791398037453
  0.1429306919463893  0.1511335397187836  0.1468009874034754
  0.8489535759683075  0.8499821989301546  0.8488755725070479
  0.3460502727699288  0.3499613739382891  0.3535698946695263
  0.9528862359522020  0.2543773830764799  0.5328935062315404
  0.4559990658700324  0.0475677837601597  0.7473850069345934
  0.5369562136728517  0.9575871212015999  0.2478814266631621
  0.7371939389620640  0.4648959536187851  0.0523037664556063
  0.2464809254170107  0.5394891064998545  0.9543843702866264
  0.0353697123878290  0.7527450816510352  0.4573627625811364
  0.3877179582542163  0.6128419577874982  0.7599985746728853
  0.9326495141128104  0.3168018943112947  0.0307641613372110
  0.7556781518412876  0.3904160827364752  0.6091361932342604
  0.0062063676990267  0.9548200183300191  0.3250319637236158
  0.6117376878627533  0.7599283470295227  0.3850122227116962
  0.3203874081859816  0.0226016530588703  0.9484681629930010
  0.6720235302629545  0.9794907744981308  0.0502568606540358
  0.2339056335453460  0.6255038519511116  0.3695991002613646
  0.0528901610791667  0.6877901214040038  0.9675644099376159
  0.3783931531284275  0.2498140879188250  0.6176240095504645
  0.9725309152540449  0.0545472465116485  0.6637099146676925
  0.5991915557955855  0.3964191121154616  0.2514587905897490
  0.9748139849432607  0.2853699171935522  0.3412348118680485
  0.4759240727634481  0.9087087924858011  0.6908443509141461
  0.3485055337942735  0.9698964461357408  0.2771943728688795
  0.6765789339292113  0.5021089810512489  0.9092354568874548
  0.2626136675814577  0.3618044917651585  0.9606720229703685
  0.8919065173937324  0.6952518315441485  0.4921436900934062
  0.0993645024334699  0.2996395884969577  0.5142148946058666
  0.6461281053368533  0.0208591488160399  0.7239681261915737
  0.5097198835615490  0.1038558020166730  0.2995107497281052
  0.7290104004646023  0.6445445082408534  0.0355198096183558
  0.2955515781843684  0.5024046375338034  0.1051523192740807
  0.0349543679797443  0.7211902352687499  0.6405713435901198
 
             NaN             NaN             NaN
             NaN             NaN             NaN
             NaN             NaN             NaN
             NaN             NaN             NaN
             NaN             NaN             NaN
             NaN             NaN             NaN
             NaN             NaN             NaN
             NaN             NaN             NaN
             NaN             NaN             NaN
             NaN             NaN             NaN
             NaN             NaN             NaN
             NaN             NaN             NaN
             NaN             NaN             NaN
             NaN             NaN             NaN
             NaN             NaN             NaN
             NaN             NaN             NaN
             NaN             NaN             NaN
             NaN             NaN             NaN
             NaN             NaN             NaN
             NaN             NaN             NaN
             NaN             NaN             NaN
             NaN             NaN             NaN
             NaN             NaN             NaN
             NaN             NaN             NaN
             NaN             NaN             NaN
             NaN             NaN             NaN
             NaN             NaN             NaN
             NaN             NaN             NaN
             NaN             NaN             NaN
             NaN             NaN             NaN
             NaN             NaN             NaN
             NaN             NaN             NaN
             NaN             NaN             NaN
             NaN             NaN             NaN
             NaN             NaN             NaN
