Ca2 Ni6 P8 O28
1.0
7.309100 0.000000 0.000000
0.000000 7.557400 0.000000
-3.502592 0.000000 8.674014
Ca Ni P O
2 6 8 28
direct
0.500000 0.000000 0.000000 Ca
0.500000 0.500000 0.500000 Ca
0.184000 0.620500 0.023700 Ni
0.816000 0.379500 0.976300 Ni
0.816000 0.120500 0.476300 Ni
0.184000 0.879500 0.523700 Ni
0.000000 0.000000 0.000000 Ni
0.000000 0.500000 0.500000 Ni
0.879400 0.702100 0.191000 P
0.120600 0.297900 0.809000 P
0.120600 0.202100 0.309000 P
0.879400 0.797900 0.691000 P
0.604800 0.433300 0.209300 P
0.395200 0.566700 0.790700 P
0.395200 0.933300 0.290700 P
0.604800 0.066700 0.709300 P
0.392100 0.477800 0.196300 O
0.607900 0.522200 0.803700 O
0.607900 0.977800 0.303700 O
0.392100 0.022200 0.696300 O
0.010600 0.209800 0.134600 O
0.989400 0.790200 0.865400 O
0.989400 0.709800 0.365400 O
0.010600 0.290200 0.634600 O
0.972800 0.578100 0.117100 O
0.027200 0.421900 0.882900 O
0.027200 0.078100 0.382900 O
0.972800 0.921900 0.617100 O
0.673100 0.624700 0.173400 O
0.326900 0.375300 0.826600 O
0.326900 0.124700 0.326600 O
0.673100 0.875300 0.673400 O
0.619600 0.299900 0.086800 O
0.380400 0.700100 0.913200 O
0.380400 0.799900 0.413200 O
0.619600 0.200100 0.586800 O
0.271800 0.883200 0.132300 O
0.728200 0.116800 0.867700 O
0.728200 0.383200 0.367700 O
0.271800 0.616800 0.632300 O
0.828500 0.880100 0.103300 O
0.171500 0.119900 0.896700 O
0.171500 0.380100 0.396700 O
0.828500 0.619900 0.603300 O
