Ca6 Ti4 O14                             
   1.00000000000000     
    -0.0000007112771742   -5.4278779462015514   -0.0005665992220705
    -5.4804520322112431   -0.0000007005758598   -0.0000004975910621
    -0.0000012268906485   -2.7149541743534367   -9.7462358246220049
   Ca   Ti   O 
     6     4    14
Direct
  0.2543060515100894  0.4456743969808737  0.9999552180110951
  0.7456936300430227  0.9456744075848186  0.0000447827956037
  0.9294565497469767  0.0260517305290167  0.6238333507351050
  0.5523239966474719  0.0260663553760193  0.3760833481937201
  0.0705433398273330  0.5260517721144151  0.3761665032282531
  0.4476756609749922  0.5260662219873866  0.6239167538636370
  0.3492928168600080  0.9886141000539929  0.8010682555277369
  0.1492086484397082  0.9888325948907154  0.1985330220459581
  0.6507072718857330  0.4886140499743261  0.1989314627339968
  0.8507910694749398  0.4888327263241578  0.8014671381437171
  0.8233938672722848  0.5056378747397478  0.0000844407156140
  0.1766060543713708  0.0056378579228262  0.9999154051220369
  0.8833776512150190  0.4672057029713822  0.6045582048521365
  0.4874405922612407  0.4673577562506234  0.3955859388501128
  0.1166221313352581  0.9672055993950778  0.3954417121329389
  0.5125590472046861  0.9673577240143669  0.6044141181894168
  0.6256774917381929  0.1951922622111233  0.8324088328495618
  0.4574462469476790  0.1951321883226611  0.1677595927468783
  0.3743222172306058  0.6951920091820514  0.1675910957507154
  0.5425560264216815  0.6951323977938879  0.8322409418925881
  0.1543482576591853  0.2778685162687178  0.7751913781833543
  0.9289498517348446  0.2778667422764559  0.2247057771536093
  0.8456514126411453  0.7778683811109838  0.2248086556614907
  0.0710501165565244  0.7778666317243781  0.7752940706207234
 
  0.00000000E+00  0.00000000E+00  0.00000000E+00
  0.00000000E+00  0.00000000E+00  0.00000000E+00
  0.00000000E+00  0.00000000E+00  0.00000000E+00
  0.00000000E+00  0.00000000E+00  0.00000000E+00
  0.00000000E+00  0.00000000E+00  0.00000000E+00
  0.00000000E+00  0.00000000E+00  0.00000000E+00
  0.00000000E+00  0.00000000E+00  0.00000000E+00
  0.00000000E+00  0.00000000E+00  0.00000000E+00
  0.00000000E+00  0.00000000E+00  0.00000000E+00
  0.00000000E+00  0.00000000E+00  0.00000000E+00
  0.00000000E+00  0.00000000E+00  0.00000000E+00
  0.00000000E+00  0.00000000E+00  0.00000000E+00
  0.00000000E+00  0.00000000E+00  0.00000000E+00
  0.00000000E+00  0.00000000E+00  0.00000000E+00
  0.00000000E+00  0.00000000E+00  0.00000000E+00
  0.00000000E+00  0.00000000E+00  0.00000000E+00
  0.00000000E+00  0.00000000E+00  0.00000000E+00
  0.00000000E+00  0.00000000E+00  0.00000000E+00
  0.00000000E+00  0.00000000E+00  0.00000000E+00
  0.00000000E+00  0.00000000E+00  0.00000000E+00
  0.00000000E+00  0.00000000E+00  0.00000000E+00
  0.00000000E+00  0.00000000E+00  0.00000000E+00
  0.00000000E+00  0.00000000E+00  0.00000000E+00
  0.00000000E+00  0.00000000E+00  0.00000000E+00
