Ca2 Mn4 S6 O24                          
   1.00000000000000     
     7.7252470000000004    0.1054130000000000    4.4950919999999996
     2.6412800000000001    7.2602989999999998    4.4983940000000002
     0.1346680000000000    0.0999300000000000    8.9175640000000005
   Ca   Mn   S    O 
     2     4     6    24
Direct
  0.4876593551676395  0.5143226897133377  0.4974084087153091
  0.9907598262271066  1.0093722425949776 -0.0042497215540418
  0.6403005691980964  0.6548680479601331  0.6577579559713640
  0.1475683900319269  0.1530074316997380  0.1498152959578677
  0.8449501133753221  0.8539400332152670  0.8432150414446900
  0.3415919971690706  0.3542091534019463  0.3482695038189308
  0.9414687875705462  0.2578814567531902  0.5507773867950633
  0.4374453607500132  0.0556868868713469  0.7476458571971205
  0.5452137772590029  0.9510479231185519  0.2471599487082381
  0.7448194194513047  0.4505818246364072  0.0517974295335784
  0.2426799666521340  0.5590181900017590  0.9502564449624966
  0.0460797637126251  0.7560843355017836  0.4488367466587884
  0.3993397868745682  0.5710326006837863  0.7701803484813804
  0.8940653511951560  0.2663130791818687  0.0817112384286678
  0.7625070822862917  0.4155642756573630  0.5603441466511363
  0.0645438619873684  0.9054640268009675  0.2641138231353662
  0.5657048196554562  0.7751901685093551  0.4071958762469075
  0.2549739735465644  0.0861764761779923  0.8993251030814374
  0.7258588361427721  0.9326170921925935  0.0924284312231783
  0.2220525319706790  0.5950247416730766  0.4331956764898115
  0.0879797334097990  0.7395717363254660  0.9261898296157182
  0.4335459026566550  0.2342969182028996  0.5897027310694972
  0.9151990335317409  0.1045935758940582  0.7325703674384404
  0.5857877144800198  0.4469871520429606  0.2292420797945212
  0.9891744649186232  0.1994644725624516  0.4022212557884301
  0.4602358026128714  0.9148668565790274  0.6930254054402155
  0.4016007344978290  0.9755974815446806  0.1951851402530445
  0.6900969091124247  0.4782576171617351  0.9083829173913643
  0.1879898363366356  0.4090358680397504  0.9957426638405472
  0.8905459043223233  0.7059339522816780  0.5008928055716788
  0.0854502685259406  0.3111007509189555  0.5231156122096110
  0.5863241206224542  0.0001393381098619  0.8095501622438368
  0.5007442656541075  0.1067120510459326  0.2937209052001625
  0.8094813798279403  0.5955256077337214  0.0004258426704208
  0.2968792666223576  0.5306489758557493  0.0940549864110346
  0.0228003425558525  0.8168596558431568  0.5854376608655794
 
             NaN             NaN             NaN
             NaN             NaN             NaN
             NaN             NaN             NaN
             NaN             NaN             NaN
             NaN             NaN             NaN
             NaN             NaN             NaN
             NaN             NaN             NaN
             NaN             NaN             NaN
             NaN             NaN             NaN
             NaN             NaN             NaN
             NaN             NaN             NaN
             NaN             NaN             NaN
             NaN             NaN             NaN
             NaN             NaN             NaN
             NaN             NaN             NaN
             NaN             NaN             NaN
             NaN             NaN             NaN
             NaN             NaN             NaN
             NaN             NaN             NaN
             NaN             NaN             NaN
             NaN             NaN             NaN
             NaN             NaN             NaN
             NaN             NaN             NaN
             NaN             NaN             NaN
             NaN             NaN             NaN
             NaN             NaN             NaN
             NaN             NaN             NaN
             NaN             NaN             NaN
             NaN             NaN             NaN
             NaN             NaN             NaN
             NaN             NaN             NaN
             NaN             NaN             NaN
             NaN             NaN             NaN
             NaN             NaN             NaN
             NaN             NaN             NaN
             NaN             NaN             NaN
