Ca2 Mn4 S6 O24
1.0
7.725247 0.105413 4.495092
2.641280 7.260299 4.498394
0.134668 0.099930 8.917564
Ca Mn S O
2 4 6 24
direct
0.466241 0.543991 0.507580 Ca
0.994780 0.997533 1.000098 Ca
0.649004 0.646012 0.648091 Mn
0.147591 0.150587 0.146097 Mn
0.843102 0.845440 0.847361 Mn
0.348836 0.348666 0.347083 Mn
0.948379 0.247867 0.549236 S
0.441966 0.047636 0.748146 S
0.550909 0.947415 0.246208 S
0.747688 0.444867 0.050092 S
0.247712 0.550979 0.945629 S
0.049166 0.748199 0.445936 S
0.402168 0.568689 0.764456 O
0.901405 0.262909 0.070038 O
0.768305 0.402632 0.565827 O
0.067795 0.902539 0.264776 O
0.568325 0.767570 0.402167 O
0.261215 0.068391 0.902662 O
0.730134 0.927635 0.090243 O
0.228451 0.592399 0.429904 O
0.092442 0.732161 0.925535 O
0.428566 0.226898 0.593217 O
0.931006 0.092298 0.730297 O
0.592084 0.430059 0.229283 O
0.988567 0.188431 0.404074 O
0.475597 0.903641 0.691414 O
0.402169 0.986392 0.192961 O
0.692401 0.482497 0.902957 O
0.191536 0.404440 0.985190 O
0.901220 0.694134 0.485261 O
0.094847 0.303441 0.511466 O
0.588228 0.002788 0.807494 O
0.516308 0.093651 0.300068 O
0.807499 0.588767 0.010779 O
0.303455 0.515326 0.091348 O
0.012073 0.806272 0.591302 O
