Co6 P4 O16                              
   1.00000000000000     
     4.3413544240180384   -0.0000001837532798   -2.5953119314769140
     0.0000000424304973    8.3348759171716065   -0.0000009132741993
     0.0143692029904419    0.0000000812547430    8.7844192326949635
   Co   P    O 
     6     4    16
Direct
  0.0000717800377998  0.4999051744515342  0.5001067173120930
  0.0000716869846329  0.0000947572235788  0.0001068399402513
  0.0211423433824152  0.1399190798666794  0.6137361909107852
  0.9790680162933327  0.6399995740993205  0.8863092744504897
  0.9790680449839755  0.8600003976541615  0.3863093380317721
  0.0211423449795021  0.3600809549668185  0.1137362327373523
  0.3407828831791448  0.8058480592586506  0.8027771739340537
  0.6592383273411357  0.3058502231306832  0.6972158491117142
  0.6592382921580864  0.1941497795639719  0.1972158466585796
  0.3407828784848732  0.6941519446048474  0.3027771614198755
  0.2735122117180140  0.8568574957340260  0.9466228838017940
  0.7265093497865465  0.3569221676133125  0.5533809023595637
  0.7265093209028137  0.1430778463984907  0.0533809030855465
  0.2735122173920388  0.6431425139897158  0.4466228783817741
  0.6874673268967157  0.8046823321171530  0.8743969832805760
  0.3124988791480590  0.3045687907919259  0.6255296699539201
  0.3124988584241990  0.1954312017464517  0.1255296948905311
  0.6874673136665947  0.6953176881053835  0.3743969829205724
  0.1894532722971576  0.9213119062445969  0.6437758877150657
  0.8102526529909397  0.4213664492741813  0.8561687118667933
  0.8102526689766307  0.0786335554403479  0.3561686950168266
  0.1894532766934631  0.5786880971186577  0.1437758673227805
  0.1917830583867755  0.6377313073093944  0.7432192867469212
  0.8082200019887296  0.1377457160700928  0.7567603371903218
  0.8082199603372899  0.3622542877184287  0.2567603590140237
  0.1917830325691270  0.8622686995075881  0.2432193319460012
 
  0.00000000E+00  0.00000000E+00  0.00000000E+00
  0.00000000E+00  0.00000000E+00  0.00000000E+00
  0.00000000E+00  0.00000000E+00  0.00000000E+00
  0.00000000E+00  0.00000000E+00  0.00000000E+00
  0.00000000E+00  0.00000000E+00  0.00000000E+00
  0.00000000E+00  0.00000000E+00  0.00000000E+00
  0.00000000E+00  0.00000000E+00  0.00000000E+00
  0.00000000E+00  0.00000000E+00  0.00000000E+00
  0.00000000E+00  0.00000000E+00  0.00000000E+00
  0.00000000E+00  0.00000000E+00  0.00000000E+00
  0.00000000E+00  0.00000000E+00  0.00000000E+00
  0.00000000E+00  0.00000000E+00  0.00000000E+00
  0.00000000E+00  0.00000000E+00  0.00000000E+00
  0.00000000E+00  0.00000000E+00  0.00000000E+00
  0.00000000E+00  0.00000000E+00  0.00000000E+00
  0.00000000E+00  0.00000000E+00  0.00000000E+00
  0.00000000E+00  0.00000000E+00  0.00000000E+00
  0.00000000E+00  0.00000000E+00  0.00000000E+00
  0.00000000E+00  0.00000000E+00  0.00000000E+00
  0.00000000E+00  0.00000000E+00  0.00000000E+00
  0.00000000E+00  0.00000000E+00  0.00000000E+00
  0.00000000E+00  0.00000000E+00  0.00000000E+00
  0.00000000E+00  0.00000000E+00  0.00000000E+00
  0.00000000E+00  0.00000000E+00  0.00000000E+00
  0.00000000E+00  0.00000000E+00  0.00000000E+00
  0.00000000E+00  0.00000000E+00  0.00000000E+00
