Ca4 V4 P6 O24
1.0
2.550402 7.255849 4.327832
-0.004150 0.016341 8.796879
7.670313 0.017024 4.305259
Ca V P O
4 4 6 24
direct
0.281396 0.833785 0.579142 Ca
0.964473 0.004835 0.021878 Ca
0.406972 0.742292 0.109234 Ca
0.146289 0.405168 0.740476 Ca
0.646013 0.631335 0.631799 V
0.142525 0.149784 0.150628 V
0.842994 0.857465 0.856584 V
0.354224 0.348375 0.352318 V
0.245940 0.556412 0.950819 P
0.038263 0.751576 0.449106 P
0.960595 0.253197 0.555969 P
0.449307 0.033409 0.742335 P
0.537371 0.947463 0.249265 P
0.747923 0.455341 0.032356 P
0.562063 0.768152 0.412466 O
0.260179 0.062057 0.908095 O
0.399215 0.577217 0.761293 O
0.924201 0.284619 0.036767 O
0.778822 0.409340 0.561269 O
0.068173 0.911205 0.265466 O
0.938349 0.085056 0.736754 O
0.585908 0.421219 0.209145 O
0.714431 0.945322 0.085070 O
0.227347 0.591256 0.419602 O
0.085364 0.744117 0.923915 O
0.429482 0.218962 0.588624 O
0.190003 0.399187 0.988306 O
0.877248 0.707208 0.486964 O
0.038872 0.179898 0.398897 O
0.464108 0.874248 0.702669 O
0.382471 0.955034 0.207619 O
0.708122 0.497726 0.863007 O
0.296021 0.532782 0.105663 O
0.023074 0.778894 0.617091 O
0.108882 0.303974 0.549921 O
0.600938 0.975164 0.811468 O
0.466542 0.109228 0.312355 O
0.772660 0.623293 0.015230 O
