V6 S8                                   
   1.00000000000000     
     9.4499109427300283    0.0018807083567865    0.0001305179152542
    -4.7265437354689945    8.1830451365059087    0.0004687279599397
     0.0001018803504673    0.0001561577205683    3.5785621951730757
   V    S 
     6     8
Direct
  0.6513022008738397  0.5289506977288099  0.2502692810227149
  0.8776970216551512  0.3487365288471191  0.2497364353886655
  0.4710615415931098  0.1223613743488770  0.2499940547358177
  0.3487360824879047  0.4710532897616458  0.7497445461102517
  0.1222698659898532  0.6512285212455442  0.7502460051218970
  0.5289313039386254  0.8776697738176075  0.7500097676112417
  0.9497926664636221  0.6366777677912161  0.2501059183262818
  0.6868756550261442  0.0502038465334545  0.2499667494854972
  0.3633266610954586  0.3131294287353967  0.2499265084252253
  0.0501747499438150  0.3632664495803390  0.7498897098846652
  0.3130995921376877  0.9498262302829876  0.7500338263259386
  0.6367325419878146  0.6868965648967321  0.7500773270963571
  0.3333247447408301  0.6666618232286909  0.2500005207259998
  0.6666753720661436  0.3333377032015650  0.7499993497394467
 
  0.00000000E+00  0.00000000E+00  0.00000000E+00
  0.00000000E+00  0.00000000E+00  0.00000000E+00
  0.00000000E+00  0.00000000E+00  0.00000000E+00
  0.00000000E+00  0.00000000E+00  0.00000000E+00
  0.00000000E+00  0.00000000E+00  0.00000000E+00
  0.00000000E+00  0.00000000E+00  0.00000000E+00
  0.00000000E+00  0.00000000E+00  0.00000000E+00
  0.00000000E+00  0.00000000E+00  0.00000000E+00
  0.00000000E+00  0.00000000E+00  0.00000000E+00
  0.00000000E+00  0.00000000E+00  0.00000000E+00
  0.00000000E+00  0.00000000E+00  0.00000000E+00
  0.00000000E+00  0.00000000E+00  0.00000000E+00
  0.00000000E+00  0.00000000E+00  0.00000000E+00
  0.00000000E+00  0.00000000E+00  0.00000000E+00
