Co16 Si16 O48                           
   1.00000000000000     
    18.3229605157214621   -0.0000375378133748    0.0026667092795701
     0.0000729435505063    8.7923648610329614    0.0004223116174176
    -0.0006834393512078    0.0000016068496495    5.2000526317260194
   Co   Si   O 
    16    16    48
Direct
  0.8763644067642105  0.6569416634406195  0.6368171622200478
  0.3764015525541495  0.8430757058250720  0.3630640544148633
  0.1235196194816197  0.1567780928114786  0.8635642517993816
  0.6235261012407705  0.3432249783527510  0.1364311643994469
  0.1235271533074140  0.3432123682993549  0.3636196134487193
  0.6235168840146557  0.1567930172638938  0.6364245679943039
  0.8763781220014337  0.8430695228625211  0.1368684001266303
  0.3764250516081020  0.6568645502263664  0.8629884484762798
  0.8767987120652450  0.4861264825553704  0.1488178056573659
  0.3767963238242373  0.0138707676010199  0.8511724098540654
  0.1232923703880076  0.9857920756644205  0.3511919573829445
  0.6232917021069326  0.5142035456319292  0.6488147207799670
  0.1233485912554926  0.5143162584222836  0.8513291468409250
  0.6232707661632233  0.9858134391988784  0.1488231064963443
  0.8767893760038135  0.0138983252450160  0.6488264697358375
  0.3767948944655046  0.4861223240835955  0.3511527189016093
  0.7716080237123251  0.3413060001338977  0.4617987823204146
  0.2716110261086229  0.1586676020054938  0.5382506919314309
  0.2283991915869734  0.8413676460007835  0.0376848671071173
  0.7283800769288078  0.6586149917955595  0.9623079436570450
  0.2283866827161276  0.6586154803165414  0.5376765514922397
  0.7283577656150513  0.8413642985671643  0.4622872055348566
  0.7715966113513772  0.1586752063292067  0.9618019420172956
  0.2716098429890863  0.3412866532095009  0.0382501528171986
  0.9721167555484627  0.3363314775860786  0.7090030585375615
  0.4721014491654643  0.1637246533346897  0.2910520839977764
  0.0279023553494895  0.8362751929651182  0.7922161549664679
  0.5279109259784605  0.6637344651428378  0.2077403772054396
  0.0279011424114017  0.6637410448172147  0.2922475187117755
  0.5279027179863220  0.8362671397202632  0.7077408080152452
  0.9721019703479783  0.1637059745518528  0.2089791115312423
  0.4721058349170093  0.3363008220994743  0.7910271692750612
  0.6837726896982161  0.3390810144868439  0.4779307107296233
  0.1837761003255594  0.1609056351981337  0.5220889642427053
  0.3162327248394803  0.8389952566248127  0.0215807463921820
  0.8162119300532424  0.6610083272634739  0.9784069310441055
  0.3162219749293769  0.6609636856113639  0.5215230963714035
  0.8161916055714684  0.8390516350542470  0.4783990696239044
  0.6837598416710691  0.1609196288621177  0.9778878856835789
  0.1837736649994781  0.3390476386878305  0.0221982416569162
  0.0604490260637220  0.3382328690656777  0.7094174527054662
  0.5604273692090445  0.1618835307002229  0.2907456820912344
  0.9395738510318097  0.8379880149434911  0.7918683219083746
  0.4395794519881662  0.6620249567552250  0.2080430921859815
  0.9395724717891483  0.6620416420116513  0.2918838081910025
  0.4395787233540958  0.8379344297384321  0.7080682715650184
  0.0604353048764921  0.1618272497121538  0.2092755259385939
  0.5604345389175904  0.3381600098325990  0.7907877672503432
  0.8099369273603827  0.5047559031505742  0.4610054575850668
  0.3099432141832708  0.9952237699868363  0.5390211253056094
  0.1900794384888940  0.0048430666715475  0.0389849713437798
  0.6900915339383005  0.4951103018925878  0.9609464845028626
  0.1900718090080389  0.4951459454929648  0.5390974530779360
  0.6900232867428500  0.0048117371502414  0.4609605815375559
  0.8099174753408889  0.9952152383057040  0.9610228074880922
  0.3099401258700993  0.5047295706082338  0.0389181319362208
  0.9313853279946187  0.4842912299705091  0.8151648624002235
  0.4314057166443064  0.0157599952837018  0.1848118817953903
  0.0685318341121004  0.9842677945466605  0.6857436629490294
  0.5685371326730149  0.5157609509332275  0.3142413597522093
  0.0685293865387635  0.5157481538378406  0.1858028599262411
  0.5684911690309065  0.9842882694223007  0.8142558061676226
  0.9313858038756422  0.0157397811399136  0.3151816545971755
  0.4314245960035237  0.4842605994982492  0.6846863997478323
  0.8032463285296956  0.2273758181741101  0.6860402781735786
  0.3032641813004346  0.2725918569250112  0.3140068656683326
  0.1967818476456102  0.7275764092225856  0.8133159419052873
  0.6967520979132402  0.7723632323409575  0.1866979269556168
  0.1967747117119742  0.7723988248992981  0.3132877313634168
  0.6967521149804341  0.7275881957824168  0.6867186936381984
  0.8032418777183565  0.2725709084071681  0.1860574278752907
  0.3032528514604849  0.2273790721729156  0.8140011988269791
  0.9463574583525727  0.1959998498434246  0.9060559158644139
  0.4463487420057746  0.3040377705068096  0.0939480578588032
  0.0536925613545662  0.6959327262777038  0.5951940198683445
  0.5536811301906894  0.8041020423360408  0.4047537870974551
  0.0536920915614800  0.8040755674868052  0.0951717992357359
  0.5536962350440291  0.6959039046759230  0.9047621668339758
  0.9463807437148049  0.3040261951157461  0.4060742992347031
  0.4463649794345343  0.1959780273334459  0.5939924042597227
 
  0.00000000E+00  0.00000000E+00  0.00000000E+00
  0.00000000E+00  0.00000000E+00  0.00000000E+00
  0.00000000E+00  0.00000000E+00  0.00000000E+00
  0.00000000E+00  0.00000000E+00  0.00000000E+00
  0.00000000E+00  0.00000000E+00  0.00000000E+00
  0.00000000E+00  0.00000000E+00  0.00000000E+00
  0.00000000E+00  0.00000000E+00  0.00000000E+00
  0.00000000E+00  0.00000000E+00  0.00000000E+00
  0.00000000E+00  0.00000000E+00  0.00000000E+00
  0.00000000E+00  0.00000000E+00  0.00000000E+00
  0.00000000E+00  0.00000000E+00  0.00000000E+00
  0.00000000E+00  0.00000000E+00  0.00000000E+00
  0.00000000E+00  0.00000000E+00  0.00000000E+00
  0.00000000E+00  0.00000000E+00  0.00000000E+00
  0.00000000E+00  0.00000000E+00  0.00000000E+00
  0.00000000E+00  0.00000000E+00  0.00000000E+00
  0.00000000E+00  0.00000000E+00  0.00000000E+00
  0.00000000E+00  0.00000000E+00  0.00000000E+00
  0.00000000E+00  0.00000000E+00  0.00000000E+00
  0.00000000E+00  0.00000000E+00  0.00000000E+00
  0.00000000E+00  0.00000000E+00  0.00000000E+00
  0.00000000E+00  0.00000000E+00  0.00000000E+00
  0.00000000E+00  0.00000000E+00  0.00000000E+00
  0.00000000E+00  0.00000000E+00  0.00000000E+00
  0.00000000E+00  0.00000000E+00  0.00000000E+00
  0.00000000E+00  0.00000000E+00  0.00000000E+00
  0.00000000E+00  0.00000000E+00  0.00000000E+00
  0.00000000E+00  0.00000000E+00  0.00000000E+00
  0.00000000E+00  0.00000000E+00  0.00000000E+00
  0.00000000E+00  0.00000000E+00  0.00000000E+00
  0.00000000E+00  0.00000000E+00  0.00000000E+00
  0.00000000E+00  0.00000000E+00  0.00000000E+00
  0.00000000E+00  0.00000000E+00  0.00000000E+00
  0.00000000E+00  0.00000000E+00  0.00000000E+00
  0.00000000E+00  0.00000000E+00  0.00000000E+00
  0.00000000E+00  0.00000000E+00  0.00000000E+00
  0.00000000E+00  0.00000000E+00  0.00000000E+00
  0.00000000E+00  0.00000000E+00  0.00000000E+00
  0.00000000E+00  0.00000000E+00  0.00000000E+00
  0.00000000E+00  0.00000000E+00  0.00000000E+00
  0.00000000E+00  0.00000000E+00  0.00000000E+00
  0.00000000E+00  0.00000000E+00  0.00000000E+00
  0.00000000E+00  0.00000000E+00  0.00000000E+00
  0.00000000E+00  0.00000000E+00  0.00000000E+00
  0.00000000E+00  0.00000000E+00  0.00000000E+00
  0.00000000E+00  0.00000000E+00  0.00000000E+00
  0.00000000E+00  0.00000000E+00  0.00000000E+00
  0.00000000E+00  0.00000000E+00  0.00000000E+00
  0.00000000E+00  0.00000000E+00  0.00000000E+00
  0.00000000E+00  0.00000000E+00  0.00000000E+00
  0.00000000E+00  0.00000000E+00  0.00000000E+00
  0.00000000E+00  0.00000000E+00  0.00000000E+00
  0.00000000E+00  0.00000000E+00  0.00000000E+00
  0.00000000E+00  0.00000000E+00  0.00000000E+00
  0.00000000E+00  0.00000000E+00  0.00000000E+00
  0.00000000E+00  0.00000000E+00  0.00000000E+00
  0.00000000E+00  0.00000000E+00  0.00000000E+00
  0.00000000E+00  0.00000000E+00  0.00000000E+00
  0.00000000E+00  0.00000000E+00  0.00000000E+00
  0.00000000E+00  0.00000000E+00  0.00000000E+00
  0.00000000E+00  0.00000000E+00  0.00000000E+00
  0.00000000E+00  0.00000000E+00  0.00000000E+00
  0.00000000E+00  0.00000000E+00  0.00000000E+00
  0.00000000E+00  0.00000000E+00  0.00000000E+00
  0.00000000E+00  0.00000000E+00  0.00000000E+00
  0.00000000E+00  0.00000000E+00  0.00000000E+00
  0.00000000E+00  0.00000000E+00  0.00000000E+00
  0.00000000E+00  0.00000000E+00  0.00000000E+00
  0.00000000E+00  0.00000000E+00  0.00000000E+00
  0.00000000E+00  0.00000000E+00  0.00000000E+00
  0.00000000E+00  0.00000000E+00  0.00000000E+00
  0.00000000E+00  0.00000000E+00  0.00000000E+00
  0.00000000E+00  0.00000000E+00  0.00000000E+00
  0.00000000E+00  0.00000000E+00  0.00000000E+00
  0.00000000E+00  0.00000000E+00  0.00000000E+00
  0.00000000E+00  0.00000000E+00  0.00000000E+00
  0.00000000E+00  0.00000000E+00  0.00000000E+00
  0.00000000E+00  0.00000000E+00  0.00000000E+00
  0.00000000E+00  0.00000000E+00  0.00000000E+00
  0.00000000E+00  0.00000000E+00  0.00000000E+00
