Ca2 Co4 S6 O24                          
   1.00000000000000     
     7.5630640256917463    0.0744478563468279    4.5045616539243962
     2.5727170986069057    7.1101061891503825    4.5082966439586718
     0.1097617601564917    0.0725937269949830    8.8187866244834705
   Ca   Co   S    O 
     2     4     6    24
Direct
  0.4975399402241791  0.4978089867986029  0.4977520459415388
  0.9978110611464999  0.9976178832462494  0.9976934568490350
  0.6452189388712668  0.6461635329177398  0.6451973757553233
  0.1462535112609515  0.1452523757486759  0.1450960518730042
  0.8491971028525427  0.8502334709937145  0.8499154278685168
  0.3501958483222865  0.3491889390549616  0.3499776720495404
  0.9506319553805440  0.2488446004989484  0.5439596393732344
  0.4522735856111453  0.0429598283217985  0.7476241750242281
  0.5429870169287128  0.9522376932233385  0.2475054353303534
  0.7488223325685652  0.4506439702453520  0.0440231751560489
  0.2462970127735886  0.5443657042840471  0.9511426090672259
  0.0443144851872503  0.7462229413481367  0.4510571086928934
  0.4052513949254291  0.5665639493105274  0.7674581022733662
  0.9086414380794565  0.2677184219116739  0.0630491149815100
  0.7676647185152490  0.4085946747559248  0.5630733182074863
  0.0667636918163481  0.9050766829258592  0.2673320549822691
  0.5616412267415924  0.7690571905463059  0.4065126870839464
  0.2690387190273000  0.0615095370492753  0.9066349575388202
  0.7260711791385930  0.9339651706186558  0.0883841550470308
  0.2271136883448932  0.5862531203789416  0.4327792459612425
  0.0863636182099370  0.7271829481463072  0.9325552657038756
  0.4338706069623299  0.2260517374518685  0.5885163967411486
  0.9288998132860513  0.0897658818489120  0.7275816479506645
  0.5897170066400221  0.4288157263811101  0.2276775869465624
  0.9861988955752281  0.1966316878552519  0.3944099064710613
  0.4872895630007648  0.8944367323903393  0.6935515895763160
  0.3944926037433376  0.9870398247555983  0.1935083650827636
  0.6965742469360166  0.4862505913510375  0.8944904473937143
  0.1947578219089863  0.3952116197313842  0.9831945142728955
  0.8952454912870351  0.6947020611195924  0.4828465695867052
  0.0999781711947847  0.3004908764616729  0.5113271031027722
  0.6006882486269873  0.0079011148368480  0.8018352166035143
  0.5077557509922030  0.1007574594783947  0.3016684305849111
  0.8003947464740122  0.5999807986516856  0.0114771716405784
  0.2986498923229632  0.5081862582407339  0.1008161271252987
  0.0077946751229589  0.7987160071205750  0.6007758521606235
 
  0.00000000E+00  0.00000000E+00  0.00000000E+00
  0.00000000E+00  0.00000000E+00  0.00000000E+00
  0.00000000E+00  0.00000000E+00  0.00000000E+00
  0.00000000E+00  0.00000000E+00  0.00000000E+00
  0.00000000E+00  0.00000000E+00  0.00000000E+00
  0.00000000E+00  0.00000000E+00  0.00000000E+00
  0.00000000E+00  0.00000000E+00  0.00000000E+00
  0.00000000E+00  0.00000000E+00  0.00000000E+00
  0.00000000E+00  0.00000000E+00  0.00000000E+00
  0.00000000E+00  0.00000000E+00  0.00000000E+00
  0.00000000E+00  0.00000000E+00  0.00000000E+00
  0.00000000E+00  0.00000000E+00  0.00000000E+00
  0.00000000E+00  0.00000000E+00  0.00000000E+00
  0.00000000E+00  0.00000000E+00  0.00000000E+00
  0.00000000E+00  0.00000000E+00  0.00000000E+00
  0.00000000E+00  0.00000000E+00  0.00000000E+00
  0.00000000E+00  0.00000000E+00  0.00000000E+00
  0.00000000E+00  0.00000000E+00  0.00000000E+00
  0.00000000E+00  0.00000000E+00  0.00000000E+00
  0.00000000E+00  0.00000000E+00  0.00000000E+00
  0.00000000E+00  0.00000000E+00  0.00000000E+00
  0.00000000E+00  0.00000000E+00  0.00000000E+00
  0.00000000E+00  0.00000000E+00  0.00000000E+00
  0.00000000E+00  0.00000000E+00  0.00000000E+00
  0.00000000E+00  0.00000000E+00  0.00000000E+00
  0.00000000E+00  0.00000000E+00  0.00000000E+00
  0.00000000E+00  0.00000000E+00  0.00000000E+00
  0.00000000E+00  0.00000000E+00  0.00000000E+00
  0.00000000E+00  0.00000000E+00  0.00000000E+00
  0.00000000E+00  0.00000000E+00  0.00000000E+00
  0.00000000E+00  0.00000000E+00  0.00000000E+00
  0.00000000E+00  0.00000000E+00  0.00000000E+00
  0.00000000E+00  0.00000000E+00  0.00000000E+00
  0.00000000E+00  0.00000000E+00  0.00000000E+00
  0.00000000E+00  0.00000000E+00  0.00000000E+00
  0.00000000E+00  0.00000000E+00  0.00000000E+00
