Ca1 Fe4 S6 O24
1.0
7.569034 0.201449 4.574447
2.677997 7.074653 4.585358
0.293996 0.219938 8.843848
Ca Fe S O
1 4 6 24
direct
0.403970 0.641918 0.539939 Ca
0.650432 0.643630 0.647740 Fe
0.140613 0.145749 0.144244 Fe
0.845543 0.847480 0.850802 Fe
0.353047 0.349906 0.348120 Fe
0.951343 0.250097 0.531601 S
0.456307 0.040464 0.744593 S
0.536974 0.957292 0.248132 S
0.746791 0.455982 0.043172 S
0.248414 0.535044 0.954844 S
0.045643 0.745804 0.459188 S
0.390918 0.595414 0.761626 O
0.933553 0.305943 0.029401 O
0.772284 0.397964 0.592577 O
0.041099 0.930502 0.307401 O
0.598407 0.765911 0.393212 O
0.315637 0.029725 0.936644 O
0.676415 0.964078 0.057648 O
0.226894 0.597463 0.400563 O
0.062776 0.687650 0.960629 O
0.393105 0.233079 0.603823 O
0.955815 0.062238 0.682735 O
0.605005 0.399798 0.235051 O
0.959353 0.258738 0.357785 O
0.474534 0.895280 0.696728 O
0.349080 0.980151 0.268762 O
0.689896 0.490452 0.897300 O
0.249042 0.359053 0.977499 O
0.886557 0.708763 0.499196 O
0.113020 0.279748 0.498778 O
0.642271 0.010827 0.729957 O
0.517068 0.104728 0.291897 O
0.750154 0.630969 0.018241 O
0.299615 0.505162 0.101922 O
0.039547 0.740686 0.631104 O
