Ca8 V4 Si6 O24                          
   1.00000000000000     
     7.8029235573962934   -0.1760310657174411    4.1153082092074049
     2.4079397159057772    7.4244062845480840    4.1144939475523552
    -0.2445562189515836   -0.1728653280192029    8.8188208089260076
   Ca   V    Si   O 
     8     4     6    24
Direct
  0.4982469448613926  0.4983343686081199  0.4983890837551925
  0.9983082844326603  0.9982780529447624  0.9984054717504307
  0.3867991784063278  0.7487905092642890  0.1101093579519343
  0.8867621031771407  0.6100313869716416  0.2488521332884090
  0.1100322179968174  0.3867783933391848  0.7488808792822539
  0.2487813471336509  0.8867691260252641  0.6101521782301162
  0.7487843064850637  0.1101623629848874  0.3867514365691349
  0.6101222167042906  0.2487941683299155  0.8867506569476689
  0.6446316653818656  0.6446997330643782  0.6446175680284441
  0.1447281097897886  0.1445961670785252  0.1446394025823921
  0.8518229402290274  0.8516174827033112  0.8517171245241002
  0.3515939664566972  0.3518045419675317  0.3517382777065166
  0.9438722037090628  0.2480389538020660  0.5529890393576338
  0.4438699988476671  0.0530071358720008  0.7480387460991125
  0.5530070228227260  0.9438446596133190  0.2480666677108374
  0.7480198929860578  0.4438862492866704  0.0529711113651672
  0.2480802004928648  0.5529480739521233  0.9438711137255282
  0.0529580499493960  0.7480753473352024  0.4438477456563987
  0.4055868919920727  0.5719853774611394  0.7527670399963355
  0.9056906748495805  0.2528495069841767  0.0716994900151491
  0.7527411022139248  0.4055641896584703  0.5718770644109341
  0.0717635960144420  0.9057528109876003  0.2528471983155427
  0.5718367663483122  0.7527745965498340  0.4056800279145492
  0.2528621727828195  0.0716525804206327  0.9057501229712202
  0.7442670629944388  0.9242354103502777  0.0909311418397039
  0.2442486440644132  0.5909713769879943  0.4241890011394318
  0.0908455941643851  0.7441506153270510  0.9244417954486934
  0.4240819163970357  0.2443421253429676  0.5910193829691792
  0.9244812354571508  0.0908340095245705  0.7442153796101181
  0.5909359767338813  0.4242963804180775  0.2442781062836161
  0.9703857285851996  0.1953186574626216  0.3878088067513445
  0.4703912071054148  0.8878735568621323  0.6952205217474372
  0.3878284449349181  0.9702534669440794  0.1953897499636739
  0.6951933113078894  0.4703948636060744  0.8878698117631885
  0.1955752502708350  0.3876983190780905  0.9701978261809714
  0.8877893773537053  0.6954219100373393  0.4702162259753351
  0.1090860807497691  0.3004332970908408  0.5267447599553421
  0.6092711204886498  0.0268679305200763  0.8000835033712690
  0.5268011308493072  0.1092199733544774  0.3001936296868237
  0.8002505726893503  0.6092059802657772  0.0267391719341106
  0.3002734010381900  0.5267159506359036  0.1092058493430841
  0.0267920907518544  0.8001304009866388  0.6092463978817193
 
  0.00000000E+00  0.00000000E+00  0.00000000E+00
  0.00000000E+00  0.00000000E+00  0.00000000E+00
  0.00000000E+00  0.00000000E+00  0.00000000E+00
  0.00000000E+00  0.00000000E+00  0.00000000E+00
  0.00000000E+00  0.00000000E+00  0.00000000E+00
  0.00000000E+00  0.00000000E+00  0.00000000E+00
  0.00000000E+00  0.00000000E+00  0.00000000E+00
  0.00000000E+00  0.00000000E+00  0.00000000E+00
  0.00000000E+00  0.00000000E+00  0.00000000E+00
  0.00000000E+00  0.00000000E+00  0.00000000E+00
  0.00000000E+00  0.00000000E+00  0.00000000E+00
  0.00000000E+00  0.00000000E+00  0.00000000E+00
  0.00000000E+00  0.00000000E+00  0.00000000E+00
  0.00000000E+00  0.00000000E+00  0.00000000E+00
  0.00000000E+00  0.00000000E+00  0.00000000E+00
  0.00000000E+00  0.00000000E+00  0.00000000E+00
  0.00000000E+00  0.00000000E+00  0.00000000E+00
  0.00000000E+00  0.00000000E+00  0.00000000E+00
  0.00000000E+00  0.00000000E+00  0.00000000E+00
  0.00000000E+00  0.00000000E+00  0.00000000E+00
  0.00000000E+00  0.00000000E+00  0.00000000E+00
  0.00000000E+00  0.00000000E+00  0.00000000E+00
  0.00000000E+00  0.00000000E+00  0.00000000E+00
  0.00000000E+00  0.00000000E+00  0.00000000E+00
  0.00000000E+00  0.00000000E+00  0.00000000E+00
  0.00000000E+00  0.00000000E+00  0.00000000E+00
  0.00000000E+00  0.00000000E+00  0.00000000E+00
  0.00000000E+00  0.00000000E+00  0.00000000E+00
  0.00000000E+00  0.00000000E+00  0.00000000E+00
  0.00000000E+00  0.00000000E+00  0.00000000E+00
  0.00000000E+00  0.00000000E+00  0.00000000E+00
  0.00000000E+00  0.00000000E+00  0.00000000E+00
  0.00000000E+00  0.00000000E+00  0.00000000E+00
  0.00000000E+00  0.00000000E+00  0.00000000E+00
  0.00000000E+00  0.00000000E+00  0.00000000E+00
  0.00000000E+00  0.00000000E+00  0.00000000E+00
  0.00000000E+00  0.00000000E+00  0.00000000E+00
  0.00000000E+00  0.00000000E+00  0.00000000E+00
  0.00000000E+00  0.00000000E+00  0.00000000E+00
  0.00000000E+00  0.00000000E+00  0.00000000E+00
  0.00000000E+00  0.00000000E+00  0.00000000E+00
  0.00000000E+00  0.00000000E+00  0.00000000E+00
