Mn4 P8 O24                              
   1.00000000000000     
    -5.2575588971500702   -4.2310994408727929    2.9471238037429131
     5.2574372186995566   -4.2322892093185267   -2.9490498857281602
     5.2629619537035612    4.2334101822695516    7.2217050009711379
   Mn   P    O 
     4     8    24
Direct
  0.0000000064891807  0.5000000235234765  0.0000001797922167
  0.0000003192522442  0.0000006372242822  0.5000000443391173
  0.2052331178980680  0.4553141296149192  0.7502661845924834
  0.7947668615263765  0.5446861775504317  0.2497338528792525
  0.0041996054618920  0.8116628720387169  0.8050718800945305
  0.5065282281555099  0.1991103941652028  0.6948290111995519
  0.9958010247052584  0.1883370782585061  0.1949279928960550
  0.4934718263971334  0.8008889145907716  0.3051713177097852
  0.2655517740608246  0.2241092299466629  0.0227689392691204
  0.7014043999812003  0.2429239176239122  0.4772408427260331
  0.7344486327207562  0.7758912174222203  0.9772304955474880
  0.2985947198479124  0.7570752116811477  0.5227588391727238
  0.8085409658235037  0.8012257684588064  0.8440061129438234
  0.4572148156406897  0.9645523960006912  0.6559866080802763
  0.1914601730776084  0.1987752397514839  0.1559939258947125
  0.5427845526077562  0.0354466051115736  0.3440138444707515
  0.2044585101118486  0.9951233959556802  0.9394715225360173
  0.5556667764407450  0.2650276127551692  0.5605471622592972
  0.7955403527339939  0.0048766990950426  0.0605288204618120
  0.4443339469773022  0.7349737730689228  0.4394535005930962
  0.9659731289694093  0.8517036974742993  0.6599991310118227
  0.6917259057911380  0.3059041751484841  0.8399760612167029
  0.0340275669863956  0.1482967673303435  0.3400008572259594
  0.3082737208249924  0.6940950574421834  0.1600242695123484
  0.0412172035091558  0.6267143774141815  0.8218042103499883
  0.3048656138033863  0.2194934959874715  0.6781234791809467
  0.9587814836471438  0.3732848102654245  0.1781954859544044
  0.6951351856692369  0.7805073579507464  0.3218764858812477
  0.1320718581540277  0.3035653502986122  0.9194562209618056
  0.8841964163356621  0.2127531710868311  0.5805878044145487
  0.8679272763124288  0.6964338763457292  0.0805423927646203
  0.1158031133362911  0.7872465577590262  0.4194111247807371
  0.5026293937734749  0.6667184281435041  0.9116497912113175
  0.2550824612574587  0.5909488970298966  0.5883666947736117
  0.4973712739421714  0.3332819038305317  0.0883508051792319
  0.7449177877778155  0.4090507826551075  0.4116341081225556
 
  0.00000000E+00  0.00000000E+00  0.00000000E+00
  0.00000000E+00  0.00000000E+00  0.00000000E+00
  0.00000000E+00  0.00000000E+00  0.00000000E+00
  0.00000000E+00  0.00000000E+00  0.00000000E+00
  0.00000000E+00  0.00000000E+00  0.00000000E+00
  0.00000000E+00  0.00000000E+00  0.00000000E+00
  0.00000000E+00  0.00000000E+00  0.00000000E+00
  0.00000000E+00  0.00000000E+00  0.00000000E+00
  0.00000000E+00  0.00000000E+00  0.00000000E+00
  0.00000000E+00  0.00000000E+00  0.00000000E+00
  0.00000000E+00  0.00000000E+00  0.00000000E+00
  0.00000000E+00  0.00000000E+00  0.00000000E+00
  0.00000000E+00  0.00000000E+00  0.00000000E+00
  0.00000000E+00  0.00000000E+00  0.00000000E+00
  0.00000000E+00  0.00000000E+00  0.00000000E+00
  0.00000000E+00  0.00000000E+00  0.00000000E+00
  0.00000000E+00  0.00000000E+00  0.00000000E+00
  0.00000000E+00  0.00000000E+00  0.00000000E+00
  0.00000000E+00  0.00000000E+00  0.00000000E+00
  0.00000000E+00  0.00000000E+00  0.00000000E+00
  0.00000000E+00  0.00000000E+00  0.00000000E+00
  0.00000000E+00  0.00000000E+00  0.00000000E+00
  0.00000000E+00  0.00000000E+00  0.00000000E+00
  0.00000000E+00  0.00000000E+00  0.00000000E+00
  0.00000000E+00  0.00000000E+00  0.00000000E+00
  0.00000000E+00  0.00000000E+00  0.00000000E+00
  0.00000000E+00  0.00000000E+00  0.00000000E+00
  0.00000000E+00  0.00000000E+00  0.00000000E+00
  0.00000000E+00  0.00000000E+00  0.00000000E+00
  0.00000000E+00  0.00000000E+00  0.00000000E+00
  0.00000000E+00  0.00000000E+00  0.00000000E+00
  0.00000000E+00  0.00000000E+00  0.00000000E+00
  0.00000000E+00  0.00000000E+00  0.00000000E+00
  0.00000000E+00  0.00000000E+00  0.00000000E+00
  0.00000000E+00  0.00000000E+00  0.00000000E+00
  0.00000000E+00  0.00000000E+00  0.00000000E+00
