Ca1 Co4 S6 O24                          
   1.00000000000000     
     7.5368870000000001    0.1250020000000000    4.5333170000000003
     2.6414130000000000    7.0301210000000003    4.5368389999999996
     0.2290830000000000    0.1232930000000000    8.7744710000000001
   Ca   Co   S    O 
     1     4     6    24
Direct
  0.2520082640121408  0.8665928962773661  0.6039141137174399
  0.6519678805191464  0.6434135711378921  0.6487064859770031
  0.1331488360594717  0.1534113179659305  0.1383482243918572
  0.8365656827049722  0.8371498769426182  0.8532038984849470
  0.3660444895503028  0.3412878333822951  0.3550583636638398
  0.9576031856627791  0.2562708063662705  0.5191460106095784
  0.4468712512471341  0.0273087137806526  0.7509047565498088
  0.5481809453491162  0.9654307088559650  0.2377850169376957
  0.7468909300298111  0.4481588214667386  0.0518674579292564
  0.2538832313289642  0.5223005374758851  0.9553869663063554
  0.0491603968296224  0.7447881583648935  0.4576583729654662
  0.4164437998998061  0.5604124649757521  0.7723602185299197
  0.9267592638482650  0.2822788255644261  0.0307610273417682
  0.7986470995560065  0.4058350982856314  0.5926474343657024
  0.0426237624274059  0.9410161517826491  0.3205892627416102
  0.5905020534900185  0.7758413359058425  0.3919141833665795
  0.3167043312960454  0.0123206520874679  0.9486623238093874
  0.6834676975808937  0.9643121375263851  0.0466552162493531
  0.2245516533065642  0.6042128523317672  0.3800123570559997
  0.0862769853769182  0.7030017252044736  0.9331677579034766
  0.3880038135384064  0.2216345810143440  0.6162533528522566
  0.9354415141103029  0.0675098608324339  0.6581691097366447
  0.6034245927477577  0.3958738252292885  0.2429929956962859
  0.9657975645518053  0.2921162621310038  0.3325351288095403
  0.4437636482056497  0.8885063112893975  0.7025029657223300
  0.3503353409326854  0.0091775010624575  0.2590664039516414
  0.6754218899977817  0.5125516574454025  0.9034218256350975
  0.2260822521056330  0.3656815660700783  0.9661728007312798
  0.8805267840147424  0.7197297234491963  0.4958334831303552
  0.1437048531886182  0.2342370550134420  0.5059991945637746
  0.6451528955835963  0.9695946209784491  0.7293104637849094
  0.5479761261300587  0.1078275897149706  0.2769334641236255
  0.7824749757480949  0.6032611434657001  0.0348821133545817
  0.2914864227244960  0.4751784694905938  0.1189926968055190
  0.0506725448935786  0.7253968328414452  0.6364590613088189
 
             NaN             NaN             NaN
             NaN             NaN             NaN
             NaN             NaN             NaN
             NaN             NaN             NaN
             NaN             NaN             NaN
             NaN             NaN             NaN
             NaN             NaN             NaN
             NaN             NaN             NaN
             NaN             NaN             NaN
             NaN             NaN             NaN
             NaN             NaN             NaN
             NaN             NaN             NaN
             NaN             NaN             NaN
             NaN             NaN             NaN
             NaN             NaN             NaN
             NaN             NaN             NaN
             NaN             NaN             NaN
             NaN             NaN             NaN
             NaN             NaN             NaN
             NaN             NaN             NaN
             NaN             NaN             NaN
             NaN             NaN             NaN
             NaN             NaN             NaN
             NaN             NaN             NaN
             NaN             NaN             NaN
             NaN             NaN             NaN
             NaN             NaN             NaN
             NaN             NaN             NaN
             NaN             NaN             NaN
             NaN             NaN             NaN
             NaN             NaN             NaN
             NaN             NaN             NaN
             NaN             NaN             NaN
             NaN             NaN             NaN
             NaN             NaN             NaN
