Ca1 Co4 S6 O24                          
   1.00000000000000     
     7.5368870000000001    0.1250020000000000    4.5333170000000003
     2.6414130000000000    7.0301210000000003    4.5368389999999996
     0.2290830000000000    0.1232930000000000    8.7744710000000001
   Ca   Co   S    O 
     1     4     6    24
Direct
  0.2636643017099237  0.8222324212361320  0.5851682590354245
  0.6588482355241756  0.6316276498142909  0.6499336310109272
  0.1433309134602666  0.1437647572744698  0.1376301628317960
  0.8316983183591740  0.8449690387127307  0.8533939718483424
  0.3636624953709132  0.3493723113367568  0.3535635310223294
  0.9564036257716632  0.2556589325451154  0.5244951130822372
  0.4469934382645625  0.0312111959776548  0.7470954325956054
  0.5501343466582727  0.9663144346667150  0.2394711700194291
  0.7464175693053570  0.4530003110204860  0.0506344399663777
  0.2543854401035199  0.5281332751095270  0.9598742091730438
  0.0418222053622643  0.7427083385372729  0.4540895047815593
  0.4220665188527394  0.5586524494830442  0.7769193900634350
  0.9254334659753329  0.2892529153865344  0.0418691188979139
  0.7875296307251275  0.3924118706345668  0.5931472805770793
  0.0349911419330897  0.9325712303414393  0.3085804583070640
  0.5937168340470739  0.7753488031340672  0.3907020451962404
  0.3165663112680573  0.0155037969400168  0.9473849917754640
  0.6884859764132890  0.9669753526627786  0.0488503194317793
  0.2291465351308110  0.5989974470306905  0.3970354706480042
  0.0894250240137255  0.7068364071926144  0.9241419100912248
  0.3792393127048350  0.2263205896781332  0.6170518759915071
  0.9643557257549182  0.0563892394202935  0.6711822043025580
  0.5944507842005661  0.4032030758262503  0.2379023779406287
  0.9673172855926375  0.2643425227528841  0.3457397997851474
  0.4512694038045997  0.8878408717063990  0.7013349824184271
  0.3535678318628276  1.0051347595714115  0.2583837287681038
  0.6890728489580319  0.5045981276877810  0.8970197119437560
  0.2312979281441651  0.3653403839120809  0.9807638368219045
  0.8869820638400339  0.7002412207594575  0.4847252874954212
  0.1364205120649182  0.2693125523538868  0.4898330594071892
  0.6415922404929763  0.9882047797897751  0.7269204373818033
  0.5422349793842713  0.1105707267661794  0.2815800239494852
  0.7653091790035156  0.6159921553427739  0.0378511717063141
  0.2882289172220718  0.5018515474694567  0.1175239635763147
  0.0231277912213904  0.7377778434853584  0.6362433848956394
 
             NaN             NaN             NaN
             NaN             NaN             NaN
             NaN             NaN             NaN
             NaN             NaN             NaN
             NaN             NaN             NaN
             NaN             NaN             NaN
             NaN             NaN             NaN
             NaN             NaN             NaN
             NaN             NaN             NaN
             NaN             NaN             NaN
             NaN             NaN             NaN
             NaN             NaN             NaN
             NaN             NaN             NaN
             NaN             NaN             NaN
             NaN             NaN             NaN
             NaN             NaN             NaN
             NaN             NaN             NaN
             NaN             NaN             NaN
             NaN             NaN             NaN
             NaN             NaN             NaN
             NaN             NaN             NaN
             NaN             NaN             NaN
             NaN             NaN             NaN
             NaN             NaN             NaN
             NaN             NaN             NaN
             NaN             NaN             NaN
             NaN             NaN             NaN
             NaN             NaN             NaN
             NaN             NaN             NaN
             NaN             NaN             NaN
             NaN             NaN             NaN
             NaN             NaN             NaN
             NaN             NaN             NaN
             NaN             NaN             NaN
             NaN             NaN             NaN
