Ca1 Fe4 S6 O24                          
   1.00000000000000     
     7.6064569999999998    0.1270440000000000    4.4708730000000001
     2.6034809999999999    7.1459630000000001    4.5098690000000001
     0.1709760000000000    0.1655870000000000    8.8278669999999995
   Ca   Fe   S    O 
     1     4     6    24
Direct
  0.2512944997416794  0.8718895855698061  0.6061225178091776
  0.6581665977413292  0.6369475275357884  0.6476985285970702
  0.1385842870026823  0.1480878277851802  0.1347063873201771
  0.8396316877702293  0.8387566729682350  0.8539137432162014
  0.3639380023336974  0.3444352235671536  0.3526825954864404
  0.9571477818739480  0.2487351945799206  0.5232027971851390
  0.4487371723275200  0.0282918886727994  0.7471049766976727
  0.5464642903884332  0.9637048756709248  0.2413987633753248
  0.7487162483367197  0.4483255830371220  0.0486336082433951
  0.2538441898297095  0.5273390649921368  0.9540012265146799
  0.0491644436429998  0.7444583262015473  0.4568890569078594
  0.4146501005480333  0.5618419401078081  0.7747163980880132
  0.9191120847892209  0.2798140758509270  0.0408170867846482
  0.8055248700006610  0.4078518628605816  0.5771114703028366
  0.0601911419610316  0.9224440983022204  0.2991418039994785
  0.5825704745042793  0.7807421096966104  0.4008092651583700
  0.3106629637896207  0.0278908998112754  0.9343678693787314
  0.6853470798512608  0.9500201759858379  0.0598768899931895
  0.2105196759021800  0.5860018580273311  0.4052916855300904
  0.0919808610878020  0.7082089416460506  0.9293190256965657
  0.4003777192034100  0.2161447741968566  0.6037425083647705
  0.9320481694140226  0.0685619334992386  0.6806534050778407
  0.5972570006086320  0.4128474500344478  0.2303740269219575
  0.9618437784704120  0.2592482704660243  0.3508642137014282
  0.4453090680026556  0.8877623823759606  0.7047279153417952
  0.3526575813501828  0.0052464752799066  0.2568048147341314
  0.6843751344874694  0.5069347554841513  0.8962716689177441
  0.2169811043327929  0.3747718773492888  0.9728162602871524
  0.8716594434547760  0.7281267269667551  0.5069943756885295
  0.1444069254612352  0.2326705081633775  0.4986548910123328
  0.6396708802660347  0.9711592451922622  0.7400174452493239
  0.5447199191167718  0.1106053111439935  0.2732176909498701
  0.7920399614593996  0.6025065707713499  0.0217870294777564
  0.2948378420802587  0.4814858873076225  0.1155334106035885
  0.0534040465719351  0.7463819472426590  0.6222854629421830
 
             NaN             NaN             NaN
             NaN             NaN             NaN
             NaN             NaN             NaN
             NaN             NaN             NaN
             NaN             NaN             NaN
             NaN             NaN             NaN
             NaN             NaN             NaN
             NaN             NaN             NaN
             NaN             NaN             NaN
             NaN             NaN             NaN
             NaN             NaN             NaN
             NaN             NaN             NaN
             NaN             NaN             NaN
             NaN             NaN             NaN
             NaN             NaN             NaN
             NaN             NaN             NaN
             NaN             NaN             NaN
             NaN             NaN             NaN
             NaN             NaN             NaN
             NaN             NaN             NaN
             NaN             NaN             NaN
             NaN             NaN             NaN
             NaN             NaN             NaN
             NaN             NaN             NaN
             NaN             NaN             NaN
             NaN             NaN             NaN
             NaN             NaN             NaN
             NaN             NaN             NaN
             NaN             NaN             NaN
             NaN             NaN             NaN
             NaN             NaN             NaN
             NaN             NaN             NaN
             NaN             NaN             NaN
             NaN             NaN             NaN
             NaN             NaN             NaN
