Co8 P8 O28                              
   1.00000000000000     
     6.4082186722751135   -0.0000407991129351   -2.8117593365129867
     0.0000081739341654    8.3212525725223099   -0.0001966178054366
    -0.0195759964480984    0.0001317881576047    9.0298475313936724
   Co   P    O 
     8     8    28
Direct
  0.2310195781981577  0.5691364578305809  0.6097588262544491
  0.7687123343900737  0.0693124601644257  0.8903274118852593
  0.7687144220729394  0.4306819180271475  0.3903236519696662
  0.2309794508339422  0.9308945139971101  0.1097426775010817
  0.6984510373903561  0.0557139092618542  0.3274793359021473
  0.3015491419287031  0.5557358992498749  0.1725324661166070
  0.3015547879925293  0.9442647720159485  0.6725352226616508
  0.6984487513915525  0.4442814574511686  0.8274710409402672
  0.9420603103309162  0.7329352770930910  0.2582144832584063
  0.0579552192669652  0.2329719429035322  0.2418061110027594
  0.0579650771783236  0.2670170938115533  0.7418051892116608
  0.9420683220238502  0.7670741293701369  0.7582143623437858
  0.5305518535348241  0.7276997232666531  0.9678200962824519
  0.4694826239995180  0.2276644283131048  0.5321663676297064
  0.4694780947053658  0.2723272567776505  0.0321677882491542
  0.5305536204814771  0.7723026162754820  0.4678160583572293
  0.7487620378375439  0.6731704086281383  0.1001537133815376
  0.2513247057184600  0.1731249174639871  0.3997766033839270
  0.2513256288999060  0.3268776237005113  0.8997811519535333
  0.7487631222447035  0.8268252929226847  0.6001554599134664
  0.3778462593268657  0.7380526905013340  0.0488850364822611
  0.6222444503222917  0.2379533666050264  0.4511251084723185
  0.6222429103564835  0.2620381001905372  0.9511290257436116
  0.3778502063759248  0.7619528807290123  0.5488840803390644
  0.1200323666383767  0.7390392364400640  0.2026009670282889
  0.8800132558651299  0.2390213471812928  0.2974610608833501
  0.8800140303168149  0.2609807610414947  0.7974619964490515
  0.1200347641424244  0.7609626656100872  0.7026063438083838
  0.9750962066572484  0.5993280369943292  0.3814609648056688
  0.0247974649774534  0.0993985734176093  0.1185122880231830
  0.0248126008049567  0.4006100716620580  0.6185157762919928
  0.9750926466355736  0.9006666370757230  0.8814613837679701
  0.8917293154010721  0.8913975433397923  0.3113595777039464
  0.1083593631678781  0.3914569803892576  0.1886821435116701
  0.1083619920054701  0.1085526713815312  0.6886830152890226
  0.8917297556903705  0.6085901479910589  0.8113642005181845
  0.4809933448330312  0.5905554278319727  0.8463938461935427
  0.5190032981733950  0.0905237432236490  0.6535527940062025
  0.5189990648198162  0.4094746001074654  0.1535525754320162
  0.4809902249973632  0.9094420957401255  0.3463915114168188
  0.5515792690231436  0.8881906749354584  0.8958358344735728
  0.4484479948542486  0.3881846569715250  0.6041030656933373
  0.4484315939482713  0.1118112758940484  0.1040960381176745
  0.5515775002462817  0.6118037162209262  0.3958333473501199
 
  0.00000000E+00  0.00000000E+00  0.00000000E+00
  0.00000000E+00  0.00000000E+00  0.00000000E+00
  0.00000000E+00  0.00000000E+00  0.00000000E+00
  0.00000000E+00  0.00000000E+00  0.00000000E+00
  0.00000000E+00  0.00000000E+00  0.00000000E+00
  0.00000000E+00  0.00000000E+00  0.00000000E+00
  0.00000000E+00  0.00000000E+00  0.00000000E+00
  0.00000000E+00  0.00000000E+00  0.00000000E+00
  0.00000000E+00  0.00000000E+00  0.00000000E+00
  0.00000000E+00  0.00000000E+00  0.00000000E+00
  0.00000000E+00  0.00000000E+00  0.00000000E+00
  0.00000000E+00  0.00000000E+00  0.00000000E+00
  0.00000000E+00  0.00000000E+00  0.00000000E+00
  0.00000000E+00  0.00000000E+00  0.00000000E+00
  0.00000000E+00  0.00000000E+00  0.00000000E+00
  0.00000000E+00  0.00000000E+00  0.00000000E+00
  0.00000000E+00  0.00000000E+00  0.00000000E+00
  0.00000000E+00  0.00000000E+00  0.00000000E+00
  0.00000000E+00  0.00000000E+00  0.00000000E+00
  0.00000000E+00  0.00000000E+00  0.00000000E+00
  0.00000000E+00  0.00000000E+00  0.00000000E+00
  0.00000000E+00  0.00000000E+00  0.00000000E+00
  0.00000000E+00  0.00000000E+00  0.00000000E+00
  0.00000000E+00  0.00000000E+00  0.00000000E+00
  0.00000000E+00  0.00000000E+00  0.00000000E+00
  0.00000000E+00  0.00000000E+00  0.00000000E+00
  0.00000000E+00  0.00000000E+00  0.00000000E+00
  0.00000000E+00  0.00000000E+00  0.00000000E+00
  0.00000000E+00  0.00000000E+00  0.00000000E+00
  0.00000000E+00  0.00000000E+00  0.00000000E+00
  0.00000000E+00  0.00000000E+00  0.00000000E+00
  0.00000000E+00  0.00000000E+00  0.00000000E+00
  0.00000000E+00  0.00000000E+00  0.00000000E+00
  0.00000000E+00  0.00000000E+00  0.00000000E+00
  0.00000000E+00  0.00000000E+00  0.00000000E+00
  0.00000000E+00  0.00000000E+00  0.00000000E+00
  0.00000000E+00  0.00000000E+00  0.00000000E+00
  0.00000000E+00  0.00000000E+00  0.00000000E+00
  0.00000000E+00  0.00000000E+00  0.00000000E+00
  0.00000000E+00  0.00000000E+00  0.00000000E+00
  0.00000000E+00  0.00000000E+00  0.00000000E+00
  0.00000000E+00  0.00000000E+00  0.00000000E+00
  0.00000000E+00  0.00000000E+00  0.00000000E+00
  0.00000000E+00  0.00000000E+00  0.00000000E+00
