Fe6 P24
1.0
4.526593 0.000000 -0.919300
0.000000 13.670000 0.000000
0.000000 0.000000 7.002000
Fe P
6 24
direct
0.000000 0.500000 0.500000 Fe0+
0.000000 0.000000 0.000000 Fe0+
0.140000 0.330100 0.880900 Fe0+
0.860000 0.830100 0.619100 Fe0+
0.860000 0.669900 0.119100 Fe0+
0.140000 0.169900 0.380900 Fe0+
0.197500 0.553500 0.249300 P0+
0.802500 0.053500 0.250700 P0+
0.802500 0.446500 0.750700 P0+
0.197500 0.946500 0.749300 P0+
0.345800 0.392500 0.645600 P0+
0.654200 0.892500 0.854400 P0+
0.654200 0.607500 0.354400 P0+
0.345800 0.107500 0.145600 P0+
0.264700 0.613300 0.696200 P0+
0.735300 0.113300 0.803800 P0+
0.735300 0.386700 0.303800 P0+
0.264700 0.886700 0.196200 P0+
0.368700 0.055300 0.570900 P0+
0.631300 0.555300 0.929100 P0+
0.631300 0.944700 0.429100 P0+
0.368700 0.444700 0.070900 P0+
0.925600 0.225300 0.635000 P0+
0.074400 0.725300 0.865000 P0+
0.074400 0.774700 0.365000 P0+
0.925600 0.274700 0.135000 P0+
0.492500 0.219200 0.967300 P0+
0.507500 0.719200 0.532700 P0+
0.507500 0.780800 0.032700 P0+
0.492500 0.280800 0.467300 P0+
