Ti4 P8 O28                              
   1.00000000000000     
     8.1524946075885989   -0.0000002127548028   -0.0000001970073126
    -0.0000002148767193    8.1524892377706379   -0.0000002825007325
    -0.0000001993414314   -0.0000002829365452    8.1524056664278088
   Ti   P    O 
     4     8    28
Direct
  0.0000059279684075  0.9999982659220695  0.9999984765284090
  0.0000059129535868  0.5000017268503555  0.4999984836415167
  0.5000059264428912  0.9999982675434651  0.5000014972769453
  0.5000059196912382  0.5000017291520841  0.0000014964345456
  0.8889348795903406  0.1110658652736856  0.6110653821694360
  0.1110679885560821  0.6110652154590671  0.8889365900238686
  0.6110679627622558  0.8889347052243662  0.1110633531813784
  0.3889347894306216  0.3889342709142307  0.3889345495418565
  0.1110679889571256  0.8889346345135414  0.3889367297938696
  0.8889348798498919  0.3889342972716164  0.1110655355879099
  0.3889349000875939  0.1110658004676506  0.8889344988596122
  0.6110680742613388  0.6110652367913456  0.6110632825841731
  0.9420186037761784  0.2145250755822188  0.0848938197644082
  0.0579747530363491  0.7145267191332836  0.4150979634487672
  0.5579748469037018  0.7854733670896634  0.5849024485038816
  0.4420185684761744  0.2854748344935440  0.9151061268329004
  0.0849011075874974  0.9420249822524078  0.2145261344099234
  0.4151005660288199  0.0579748244742130  0.7145252848761930
  0.5849010878821176  0.5579750416575439  0.7854738231997640
  0.9151005329521885  0.4420251581901729  0.2854746097215425
  0.2145239246259140  0.0848987179903012  0.9420205362179436
  0.7145239351502968  0.4151012643626959  0.0579793981342019
  0.7854746127690905  0.5849009588718205  0.5579693977733353
  0.2854746804993778  0.9150990454373402  0.4420306437594219
  0.0579748394525675  0.7854733996877569  0.9150976044696049
  0.9420185641778636  0.2854747763181874  0.5848939043584557
  0.4420185902427147  0.2145251164350951  0.4151060829599326
  0.5579748613982127  0.7145266731949041  0.0849024061296917
  0.9151005228227577  0.0579747647796661  0.7854747654931814
  0.5849010601886806  0.9420249231695762  0.2854737685431785
  0.4151005442858880  0.4420252170239543  0.2145252297750307
  0.0849010977966478  0.5579750940283584  0.7145262932362670
  0.7854746998131362  0.9150990681574876  0.0579693585858552
  0.2854746774171027  0.5849009520824251  0.9420306611567403
  0.2145240042587671  0.4151012584342882  0.4420204936012703
  0.7145239376625072  0.0848987368898338  0.5579794165618137
  0.9999975537633231  0.9999988376992643  0.4999990062703140
  0.9999975625219220  0.5000011708676046  0.9999990006681948
  0.4999975565010927  0.9999988380419963  0.0000009729278585
  0.4999975574577293  0.5000011682709395  0.5000009729967857
 
  0.00000000E+00  0.00000000E+00  0.00000000E+00
  0.00000000E+00  0.00000000E+00  0.00000000E+00
  0.00000000E+00  0.00000000E+00  0.00000000E+00
  0.00000000E+00  0.00000000E+00  0.00000000E+00
  0.00000000E+00  0.00000000E+00  0.00000000E+00
  0.00000000E+00  0.00000000E+00  0.00000000E+00
  0.00000000E+00  0.00000000E+00  0.00000000E+00
  0.00000000E+00  0.00000000E+00  0.00000000E+00
  0.00000000E+00  0.00000000E+00  0.00000000E+00
  0.00000000E+00  0.00000000E+00  0.00000000E+00
  0.00000000E+00  0.00000000E+00  0.00000000E+00
  0.00000000E+00  0.00000000E+00  0.00000000E+00
  0.00000000E+00  0.00000000E+00  0.00000000E+00
  0.00000000E+00  0.00000000E+00  0.00000000E+00
  0.00000000E+00  0.00000000E+00  0.00000000E+00
  0.00000000E+00  0.00000000E+00  0.00000000E+00
  0.00000000E+00  0.00000000E+00  0.00000000E+00
  0.00000000E+00  0.00000000E+00  0.00000000E+00
  0.00000000E+00  0.00000000E+00  0.00000000E+00
  0.00000000E+00  0.00000000E+00  0.00000000E+00
  0.00000000E+00  0.00000000E+00  0.00000000E+00
  0.00000000E+00  0.00000000E+00  0.00000000E+00
  0.00000000E+00  0.00000000E+00  0.00000000E+00
  0.00000000E+00  0.00000000E+00  0.00000000E+00
  0.00000000E+00  0.00000000E+00  0.00000000E+00
  0.00000000E+00  0.00000000E+00  0.00000000E+00
  0.00000000E+00  0.00000000E+00  0.00000000E+00
  0.00000000E+00  0.00000000E+00  0.00000000E+00
  0.00000000E+00  0.00000000E+00  0.00000000E+00
  0.00000000E+00  0.00000000E+00  0.00000000E+00
  0.00000000E+00  0.00000000E+00  0.00000000E+00
  0.00000000E+00  0.00000000E+00  0.00000000E+00
  0.00000000E+00  0.00000000E+00  0.00000000E+00
  0.00000000E+00  0.00000000E+00  0.00000000E+00
  0.00000000E+00  0.00000000E+00  0.00000000E+00
  0.00000000E+00  0.00000000E+00  0.00000000E+00
  0.00000000E+00  0.00000000E+00  0.00000000E+00
  0.00000000E+00  0.00000000E+00  0.00000000E+00
  0.00000000E+00  0.00000000E+00  0.00000000E+00
  0.00000000E+00  0.00000000E+00  0.00000000E+00
