Ca4 V16 P24 O96                         
   1.00000000000000     
    -4.5381299999999998    6.9394929999999997    8.6865769999999998
     5.0843350000000003   -6.5953889999999999    8.7324269999999995
     9.7611270000000001    6.9376119999999997    0.3220360000000000
   Ca   V    P    O 
     4    16    24    96
Direct
  0.5038636262365075  0.5444013773473013  0.4533565633664438
  0.5037697511563309  0.9919063745325249  0.9968959551370552
  0.0021451049736310  0.9973892458759911  0.4962948536537777
  0.0072011142138300  0.4869756221198491  0.9978407391668201
  0.6465789954724943  0.6430552018265645  0.6455779247205327
  0.6429470975142562  0.1429895018932241  0.1460567176478534
  0.1453282309623705  0.1477526784484944  0.6423388095565478
  0.1418858849274688  0.6459260747003416  0.1419830655682535
  0.1387473033922522  0.1449485350250725  0.1412400970376768
  0.1386111132033068  0.6432897912842549  0.6415038602462658
  0.6427218570948354  0.6428383141739910  0.1380822431742152
  0.6386353033525786  0.1429553173357398  0.6414638437877248
  0.8518194158176888  0.8547302972539478  0.8562984888524979
  0.8540544903127990  0.3531644972549673  0.3558259638734277
  0.3521675082930555  0.3557253185176473  0.8550317062746591
  0.3537453987208260  0.8547531973491966  0.3520544393766333
  0.3516386345506752  0.3518513573690026  0.3525284152091629
  0.3470556740231927  0.8536602901236595  0.8529345159497599
  0.8523355482273868  0.8505603612439078  0.3528789488749714
  0.8474967444306857  0.3515319040135622  0.8536543785621312
  0.3867470986801245  0.7463173942715358  0.6074016720352202
  0.3888969972855576  0.2440802976656004  0.1045904811723429
  0.8865003087637006  0.2430492826339554  0.6058176359667653
  0.8894993604885990  0.7449099269885544  0.1048736366989777
  0.3888427284783671  0.6074922382938628  0.2395129659413939
  0.3896318777863143  0.1078685111196378  0.7533322837416505
  0.8900735873927516  0.1062781027176991  0.2535589176230039
  0.8906180555519536  0.6064464133724558  0.7553993232997680
  0.6055577960098680  0.3909202709953625  0.7440304210171681
  0.6068125798686886  0.8866188122531899  0.2436499271125890
  0.1031741848331808  0.8909162023276449  0.7429975026228034
  0.1041937132981248  0.3895545683640030  0.2442913982169027
  0.2492329670715656  0.3926379588431075  0.6037524864713310
  0.2472652914790769  0.8926012916893658  0.1067034271144832
  0.7459393270045187  0.8897273401864428  0.6054464588492474
  0.7506320799177101  0.3880135770107770  0.1089792224709130
  0.7503667419513701  0.6049611316878644  0.3882090785992783
  0.7453518608464027  0.1042016732939583  0.8899653689597350
  0.2486550530247976  0.1061494657339965  0.3895088978572302
  0.2448618427641253  0.6063581845902931  0.8880394550093559
  0.6059448312960152  0.2556836130337576  0.3897386200529505
  0.6053709637802774  0.7528359753949189  0.8925241686346851
  0.1089040763789143  0.7521449452469351  0.3894249219309268
  0.1062777367021010  0.2513453957949862  0.8914588384148684
  0.6839201803794196  0.5806482001919656  0.4983921264478157
  0.6780814917564306  0.0793060558286020  1.0005696783302256
  0.1790215727590844  0.0807640234667153  0.4986522128842529
  0.1754292692208472  0.5812507739006391  0.9970498169019292
  0.1648188024608100  0.4870625570500515  0.6257643637849127
  0.1651953140925770  0.9874260153828253  0.1312187224065476
  0.6613950668565700  0.9845385534356853  0.6220088021579765
  0.6711562832654592  0.4852666739441899  0.1354941513640547
  0.4955702012736706  0.6787160967407621  0.5827877154518345
  0.4938608991917617  0.1716345146714782  0.0782019028274172
  0.9949595647831659  0.1765809012327977  0.5783208347119551
  0.9950284679695931  0.6742066508131180  0.0765532099778602
  0.6267270604821372  0.1704705206943370  0.4837037890996845
  0.6276168056173956  0.6620821657139978  0.9824888953993431
  0.1342660844780206  0.6668312788085305  0.4822895546539546
  0.1281491388098970  0.1626302665240332  0.9821700029080350
  0.5851108124535311  0.5019367569197483  0.6790258873181173
  0.5785256970359962  0.9973397923777846  0.1807485593602810
  0.0785251090715927  1.0014648072874368  0.6786185863777437
  0.0783870411499642  0.5003542045724395  0.1803502273300854
  0.4893577518046140  0.6339341740932748  0.1615325421053577
  0.4884700978159925  0.1329559622896855  0.6706519697138162
  0.9883026324840493  0.1312581843252477  0.1706867609785179
  0.9877879270365035  0.6329024944802287  0.6709468803433878
  0.5096089689909372  0.3681722301835338  0.8258041049174821
  0.5128257666862014  0.8563744781201929  0.3259760249034063
  0.0090191608450109  0.8647855867130049  0.8263026255305941
  0.0124668413933591  0.3636551783150622  0.3303572108704891
  0.4970620230024230  0.3246092418821939  0.4104374964457319
  0.4930797242713711  0.8153468807915391  0.9177413258595030
  0.9987818424279398  0.8172186580452875  0.4155119570051026
  0.9937468321887397  0.3132650329396177  0.9148607680672075
  0.8345948695053198  0.5115569602915204  0.3618330890526382
  0.8322039436961957  0.0115515365409933  0.8670169806774186
  0.3335429118594031  0.0106746428836835  0.3686696494943471
  0.3304227176988974  0.5126855622225495  0.8660014636066905
  0.4142078702218392  0.4968707701717022  0.3022948724269606
  0.4173637998183781  0.9992162789016237  0.8192129569498842
  0.9176169533724581  0.9963364609070199  0.3179572982725553
  0.9196118911387368  0.4978369024984362  0.8204824317119143
  0.3649575829504341  0.8234682304663303  0.5046772928882669
  0.3685006170144890  0.3288039102772882  0.0074096439740713
  0.8630265478489972  0.3269375806201085  0.5082108582869901
  0.8672528524413389  0.8298355170274568  0.0092488682556641
  0.3225006762970823  0.4203126339735024  0.4985586502032415
  0.3178556336129138  0.9191219980973303 -0.0006252266225633
  0.8230773860050463  0.9137013266588452  0.5020272861492648
  0.8219587563299638  0.4149589793397649  0.0022105549692813
  0.2960258725793719  0.6625028692031075  0.6260252220996213
  0.2935472717336235  0.1644988989252098  0.1198773469604389
  0.7962530570252603  0.1576824336456506  0.6207162432213025
  0.7976207548529727  0.6612584857765237  0.1222666741783866
  0.7892133345633958  0.5931468905250247  0.6862283703964051
  0.7874877216582727  0.0957789165081291  0.1862177271256164
  0.2883363328576087  0.0963063224722909  0.6838008956554193
  0.2877325168420268  0.5977880405101148  0.1710073182754978
  0.6276050034488667  0.3027181185213280  0.6585497579784183
  0.6271300752728358  0.8033534543416800  0.1517270939382929
  0.1216480097990507  0.8054032773669236  0.6532827440701395
  0.1177070650524291  0.3059673815249324  0.1517963772932613
  0.6863724573574264  0.7825116244738883  0.5893409537329876
  0.6837588991101428  0.2861012277862963  0.0943236239014087
  0.1855295196848604  0.2878386332994768  0.5873756587045680
  0.1830688555002725  0.7885872210453406  0.0932899455176093
  0.6581112502910090  0.6236942920533225  0.3041430425655222
  0.6586970078747167  0.1181128835446126  0.8013554017400256
  0.1625537721548888  0.1252061118290531  0.3009489476788760
  0.1578235333925298  0.6236268508044422  0.8001228735068859
  0.5993281183546985  0.6948903169744726  0.7829532793765903
  0.5963383821265904  0.1893361909632597  0.2832212403467764
  0.1000909539655381  0.1923459829160952  0.7808426873746566
  0.0988833286639537  0.6878577116740197  0.2823417012186459
  0.4024024164316763  0.3069793111024249  0.2089604767463336
  0.3977443431084016  0.8160795216235902  0.7078083638220829
  0.9034092065374218  0.8084818424886310  0.2093923646528347
  0.8966403198868097  0.3085701541835250  0.7094765637324756
  0.3730537653383371  0.6906087758235629  0.3318004231373444
  0.3703076134427341  0.1959671720429957  0.8388431796397450
  0.8735432498063059  0.1923388415222876  0.3416419761354500
  0.8693653146605090  0.6950073552444006  0.8403292086025819
  0.2128757788899865  0.3972012346080152  0.3061560305376049
  0.2091503921655129  0.9017632355572990  0.8096052566167610
  0.7120828043766232  0.8978242841185321  0.3100400231227645
  0.7105600537751576  0.4019711113139591  0.8132641840024417
  0.8242909084741773  0.8709614570748286  0.7027656742022966
  0.8367244555781298  0.3659096830409853  0.1997726060670214
  0.3273182451982481  0.3707733305341778  0.7011778540834011
  0.3352425528414603  0.8735052672419150  0.1967576964508904
  0.3130600550379659  0.2102202108725415  0.4035779550616671
  0.3073478358053359  0.7118875812485932  0.9007023449064968
  0.8151430080729178  0.7095765048901483  0.4000046879350503
  0.8064291224338096  0.2105215788807043  0.9021889421148680
  0.6939952189268236  0.3417689042876952  0.3717797503737510
  0.6901645538002709  0.8432453288482500  0.8857101689213974
  0.1939222096957764  0.8414651162956392  0.3703679705143516
  0.1902146743401613  0.3424665687734424  0.8822949498994689
 
             NaN             NaN             NaN
             NaN             NaN             NaN
             NaN             NaN             NaN
             NaN             NaN             NaN
             NaN             NaN             NaN
             NaN             NaN             NaN
             NaN             NaN             NaN
             NaN             NaN             NaN
             NaN             NaN             NaN
             NaN             NaN             NaN
             NaN             NaN             NaN
             NaN             NaN             NaN
             NaN             NaN             NaN
             NaN             NaN             NaN
             NaN             NaN             NaN
             NaN             NaN             NaN
             NaN             NaN             NaN
             NaN             NaN             NaN
             NaN             NaN             NaN
             NaN             NaN             NaN
             NaN             NaN             NaN
             NaN             NaN             NaN
             NaN             NaN             NaN
             NaN             NaN             NaN
             NaN             NaN             NaN
             NaN             NaN             NaN
             NaN             NaN             NaN
             NaN             NaN             NaN
             NaN             NaN             NaN
             NaN             NaN             NaN
             NaN             NaN             NaN
             NaN             NaN             NaN
             NaN             NaN             NaN
             NaN             NaN             NaN
             NaN             NaN             NaN
             NaN             NaN             NaN
             NaN             NaN             NaN
             NaN             NaN             NaN
             NaN             NaN             NaN
             NaN             NaN             NaN
             NaN             NaN             NaN
             NaN             NaN             NaN
             NaN             NaN             NaN
             NaN             NaN             NaN
             NaN             NaN             NaN
             NaN             NaN             NaN
             NaN             NaN             NaN
             NaN             NaN             NaN
             NaN             NaN             NaN
             NaN             NaN             NaN
             NaN             NaN             NaN
             NaN             NaN             NaN
             NaN             NaN             NaN
             NaN             NaN             NaN
             NaN             NaN             NaN
             NaN             NaN             NaN
             NaN             NaN             NaN
             NaN             NaN             NaN
             NaN             NaN             NaN
             NaN             NaN             NaN
             NaN             NaN             NaN
             NaN             NaN             NaN
             NaN             NaN             NaN
             NaN             NaN             NaN
             NaN             NaN             NaN
             NaN             NaN             NaN
             NaN             NaN             NaN
             NaN             NaN             NaN
             NaN             NaN             NaN
             NaN             NaN             NaN
             NaN             NaN             NaN
             NaN             NaN             NaN
             NaN             NaN             NaN
             NaN             NaN             NaN
             NaN             NaN             NaN
             NaN             NaN             NaN
             NaN             NaN             NaN
             NaN             NaN             NaN
             NaN             NaN             NaN
             NaN             NaN             NaN
             NaN             NaN             NaN
             NaN             NaN             NaN
             NaN             NaN             NaN
             NaN             NaN             NaN
             NaN             NaN             NaN
             NaN             NaN             NaN
             NaN             NaN             NaN
             NaN             NaN             NaN
             NaN             NaN             NaN
             NaN             NaN             NaN
             NaN             NaN             NaN
             NaN             NaN             NaN
             NaN             NaN             NaN
             NaN             NaN             NaN
             NaN             NaN             NaN
             NaN             NaN             NaN
             NaN             NaN             NaN
             NaN             NaN             NaN
             NaN             NaN             NaN
             NaN             NaN             NaN
             NaN             NaN             NaN
             NaN             NaN             NaN
             NaN             NaN             NaN
             NaN             NaN             NaN
             NaN             NaN             NaN
             NaN             NaN             NaN
             NaN             NaN             NaN
             NaN             NaN             NaN
             NaN             NaN             NaN
             NaN             NaN             NaN
             NaN             NaN             NaN
             NaN             NaN             NaN
             NaN             NaN             NaN
             NaN             NaN             NaN
             NaN             NaN             NaN
             NaN             NaN             NaN
             NaN             NaN             NaN
             NaN             NaN             NaN
             NaN             NaN             NaN
             NaN             NaN             NaN
             NaN             NaN             NaN
             NaN             NaN             NaN
             NaN             NaN             NaN
             NaN             NaN             NaN
             NaN             NaN             NaN
             NaN             NaN             NaN
             NaN             NaN             NaN
             NaN             NaN             NaN
             NaN             NaN             NaN
             NaN             NaN             NaN
             NaN             NaN             NaN
             NaN             NaN             NaN
             NaN             NaN             NaN
             NaN             NaN             NaN
             NaN             NaN             NaN
             NaN             NaN             NaN
             NaN             NaN             NaN
             NaN             NaN             NaN
             NaN             NaN             NaN
             NaN             NaN             NaN
