Ca4 V16 P24 O96
1.0
-4.538130 6.939493 8.686577
5.084335 -6.595389 8.732427
9.761127 6.937612 0.322036
Ca V P O
4 16 24 96
direct
0.520975 0.554589 0.477612 Ca
0.506442 0.994400 0.991073 Ca
1.003272 -0.004822 0.493854 Ca
0.008808 0.490755 0.993866 Ca
0.643525 0.640340 0.645131 V
0.644124 0.144760 0.142543 V
0.143948 0.144532 0.642994 V
0.143765 0.644685 0.143188 V
0.138860 0.143196 0.140923 V
0.138137 0.642289 0.641392 V
0.639013 0.642161 0.139927 V
0.638421 0.141962 0.641084 V
0.852264 0.854079 0.855491 V
0.853550 0.352510 0.355357 V
0.352263 0.354007 0.855504 V
0.351243 0.856073 0.353960 V
0.351382 0.352935 0.353450 V
0.348443 0.851536 0.852435 V
0.851092 0.850310 0.351741 V
0.849900 0.351537 0.852359 V
0.387257 0.742706 0.606236 P
0.388196 0.244019 0.106035 P
0.887132 0.242989 0.605868 P
0.888663 0.743614 0.104861 P
0.390818 0.606911 0.252328 P
0.389254 0.106635 0.752135 P
0.890054 0.106105 0.252075 P
0.889697 0.606554 0.753852 P
0.605178 0.387864 0.745642 P
0.604499 0.890010 0.241715 P
0.103922 0.889398 0.743469 P
0.105053 0.389042 0.244386 P
0.248050 0.389799 0.606399 P
0.246929 0.890308 0.105506 P
0.746482 0.888639 0.605655 P
0.749698 0.389432 0.106572 P
0.747842 0.603434 0.388118 P
0.746360 0.104463 0.887439 P
0.244534 0.106101 0.388237 P
0.246580 0.604591 0.888293 P
0.606698 0.250985 0.389998 P
0.606561 0.752456 0.891394 P
0.106034 0.749701 0.391334 P
0.106914 0.251246 0.890744 P
0.681020 0.580707 0.498848 O
0.680242 0.079861 0.998655 O
0.178034 0.079179 0.498509 O
0.180653 0.578759 0.999381 O
0.165418 0.485044 0.629043 O
0.164587 0.985744 0.127931 O
0.664331 0.984862 0.626618 O
0.668162 0.485457 0.129383 O
0.493799 0.672296 0.581468 O
0.494142 0.173811 0.077133 O
0.994108 0.174299 0.578045 O
0.994035 0.672253 0.077381 O
0.629637 0.164186 0.482185 O
0.629228 0.663300 0.981710 O
0.126366 0.661680 0.482624 O
0.131324 0.164190 0.982475 O
0.580537 0.498817 0.681217 O
0.580129 0.999394 0.175881 O
0.078158 -0.000367 0.678422 O
0.079889 0.499527 0.179496 O
0.489070 0.629048 0.168293 O
0.487735 0.132893 0.669236 O
0.987990 0.131168 0.168756 O
0.987837 0.632891 0.670797 O
0.511205 0.362814 0.828898 O
0.510606 0.868347 0.327071 O
0.010290 0.863578 0.827317 O
0.011951 0.363913 0.329216 O
0.494643 0.313653 0.413311 O
0.494324 0.815026 0.915385 O
-0.003451 0.816384 0.415305 O
0.994586 0.313498 0.915405 O
0.832918 0.510270 0.364221 O
0.832515 0.011401 0.863976 O
0.329074 0.010414 0.365117 O
0.332899 0.511719 0.864565 O
0.416085 0.498330 0.317669 O
0.417915 0.997230 0.816324 O
0.917060 0.996389 0.316782 O
0.918974 0.497394 0.818196 O
0.369692 0.825498 0.507578 O
0.364117 0.326663 0.007681 O
0.863470 0.325986 0.507871 O
0.866782 0.827720 0.007800 O
0.320608 0.414899 0.500787 O
0.320901 0.916713 1.000390 O
0.821818 0.914513 0.501241 O
0.823636 0.415684 0.001494 O
0.293468 0.662062 0.621733 O
0.294971 0.162281 0.125094 O
0.795404 0.159706 0.623823 O
0.794414 0.663413 0.122910 O
0.788311 0.594943 0.684705 O
0.787868 0.096135 0.184111 O
0.287854 0.095105 0.682920 O
0.287916 0.599084 0.185131 O
0.624810 0.303049 0.655856 O
0.618996 0.803244 0.153404 O
0.122269 0.804101 0.653578 O
0.120475 0.304399 0.153406 O
0.682484 0.785089 0.588009 O
0.684775 0.286371 0.090031 O
0.183508 0.285436 0.591207 O
0.182899 0.786159 0.089524 O
0.658953 0.622684 0.301998 O
0.657112 0.119059 0.801461 O
0.156412 0.121771 0.301457 O
0.158129 0.621010 0.801880 O
0.600961 0.693508 0.781169 O
0.598552 0.189110 0.280932 O
0.099088 0.190036 0.782129 O
0.097114 0.690357 0.281598 O
0.402558 0.310303 0.208261 O
0.399020 0.808964 0.709207 O
0.902833 0.808938 0.208265 O
0.900062 0.309843 0.708356 O
0.377346 0.696119 0.337139 O
0.370017 0.193406 0.839080 O
0.873076 0.192462 0.339728 O
0.869660 0.693725 0.840238 O
0.212700 0.398797 0.307649 O
0.210545 0.901162 0.808686 O
0.710754 0.897820 0.307554 O
0.711611 0.400715 0.810967 O
0.826889 0.867406 0.701381 O
0.832169 0.367554 0.200699 O
0.329693 0.368333 0.701133 O
0.329466 0.869195 0.199444 O
0.308194 0.209952 0.399931 O
0.308069 0.710872 0.900695 O
0.810679 0.709723 0.399139 O
0.808194 0.210365 0.898687 O
0.691648 0.340397 0.376351 O
0.690485 0.843422 0.882381 O
0.193395 0.836772 0.380193 O
0.189933 0.343213 0.879033 O
