Co4 S8                                  
   1.00000000000000     
     5.6218992827365133   -0.0000003099696779   -0.0000033965000205
    -0.0000003229255877    5.6221879831123402    0.0000018838660198
    -0.0000033756478759    0.0000018724591681    5.6219186226431086
   Co   S 
     4     8
Direct
  0.4999877748893482  0.5000148425559843  0.9999982620281216
  0.4999873491233799  0.9999853002648109  0.4999978791517563
  0.9999875693975042  0.5000146053731385  0.5000018323367001
  0.9999873820141829  0.9999853464558157  0.0000022695644191
  0.1056211641804765  0.8944247418095017  0.3944236260597194
  0.8943909968072603  0.3944452474204994  0.1055906615739630
  0.3943912440812198  0.1055540841301266  0.8944097059269680
  0.6056211737830068  0.6055755193869388  0.6055763580312359
  0.8943913163912356  0.1055540925455034  0.6055906675618346
  0.1056214790936281  0.6055758711469750  0.8944236219447603
  0.6056212475190108  0.8944247577627706  0.1055758858903033
  0.3943913027197397  0.3944455911479352  0.3944092299302113
 
  0.00000000E+00  0.00000000E+00  0.00000000E+00
  0.00000000E+00  0.00000000E+00  0.00000000E+00
  0.00000000E+00  0.00000000E+00  0.00000000E+00
  0.00000000E+00  0.00000000E+00  0.00000000E+00
  0.00000000E+00  0.00000000E+00  0.00000000E+00
  0.00000000E+00  0.00000000E+00  0.00000000E+00
  0.00000000E+00  0.00000000E+00  0.00000000E+00
  0.00000000E+00  0.00000000E+00  0.00000000E+00
  0.00000000E+00  0.00000000E+00  0.00000000E+00
  0.00000000E+00  0.00000000E+00  0.00000000E+00
  0.00000000E+00  0.00000000E+00  0.00000000E+00
  0.00000000E+00  0.00000000E+00  0.00000000E+00
