Ca1 Mn4 S6 O24                          
   1.00000000000000     
     7.7743770000000003    0.0677110000000000    4.9087180000000004
     2.7623020000000000    6.9915599999999998    4.7775689999999997
     0.5392530000000000    0.1088890000000000    8.9396819999999995
   Ca   Mn   S    O 
     1     4     6    24
Direct
  0.2905889258717846  0.7378123945071269  0.5517914427578722
  0.6618377690089516  0.6388908056073509  0.6468175909199400
  0.1391616362999656  0.1587262761013676  0.1407352417286092
  0.8225208296904670  0.8545213345765218  0.8465114761738166
  0.3576466822013699  0.3521539771820823  0.3575234162947638
  0.9751381371614871  0.2300848181544139  0.5285917396188851
  0.4311351411950116  0.0469203284689974  0.7585556054520746
  0.5533592140578337  0.9646878303089746  0.2356104592768421
  0.7400556587252164  0.4703449196488226  0.0562150167488153
  0.2585926436400244  0.5181401713831087  0.9582384466118564
  0.0317376521479684  0.7594973387284384  0.4466012467266507
  0.4253918819453568  0.5641273190365105  0.7755279014008339
  0.9354727400314043  0.3395202899451862  0.0195639256824616
  0.7964264727084067  0.3558784119580062  0.6223138351490047
  0.0079471010923848  0.9648821373194090  0.3344436911704487
  0.6004456950134759  0.7731950346007764  0.3866585579803826
  0.2910310497278044  0.0174052160773595  0.9691692507322710
  0.7002265622104138  0.9709859604543035  0.0365846312378588
  0.2338047589574999  0.6422173265883486  0.3753841819160955
  0.0916560916158575  0.6712142971260198  0.9153686537675756
  0.3540495023596139  0.2429845648565491  0.6365465862232333
  0.9847288991372936  0.0219537535358277  0.6442810856392472
  0.6077061911744429  0.3941903798487002  0.2540542691169258
  0.9880456656982988  0.2807897411344864  0.3321043674647654
  0.4553404912262888  0.9023020603378307  0.7083835341091107
  0.3690526033771467  0.9885920111088675  0.2567935428285095
  0.6842259450171068  0.5175759880666112  0.9088513540189271
  0.2787855148110682  0.3335902188813218  0.9717865335966474
  0.9104333714557520  0.7068776624337584  0.4452248265768139
  0.1383222818625111  0.2375659683571985  0.5104369268656346
  0.6123429073797091  0.0205914599494797  0.7402696821141347
  0.5385398532913452  0.1152431356629020  0.2673969531672472
  0.7224368776114286  0.6537656230470846  0.0482205902499350
  0.2608072577689232  0.5023242327888188  0.1255727960114240
 -0.0129885296132123  0.7195673377650958  0.6541568373478878
 
             NaN             NaN             NaN
             NaN             NaN             NaN
             NaN             NaN             NaN
             NaN             NaN             NaN
             NaN             NaN             NaN
             NaN             NaN             NaN
             NaN             NaN             NaN
             NaN             NaN             NaN
             NaN             NaN             NaN
             NaN             NaN             NaN
             NaN             NaN             NaN
             NaN             NaN             NaN
             NaN             NaN             NaN
             NaN             NaN             NaN
             NaN             NaN             NaN
             NaN             NaN             NaN
             NaN             NaN             NaN
             NaN             NaN             NaN
             NaN             NaN             NaN
             NaN             NaN             NaN
             NaN             NaN             NaN
             NaN             NaN             NaN
             NaN             NaN             NaN
             NaN             NaN             NaN
             NaN             NaN             NaN
             NaN             NaN             NaN
             NaN             NaN             NaN
             NaN             NaN             NaN
             NaN             NaN             NaN
             NaN             NaN             NaN
             NaN             NaN             NaN
             NaN             NaN             NaN
             NaN             NaN             NaN
             NaN             NaN             NaN
             NaN             NaN             NaN
