Ca1 Mn4 S6 O24
1.0
7.774377 0.067711 4.908718
2.762302 6.991560 4.777569
0.539253 0.108889 8.939682
Ca Mn S O
1 4 6 24
direct
0.347403 0.726612 0.572045 Ca
0.656302 0.644133 0.646395 Mn
0.147045 0.152388 0.143254 Mn
0.826700 0.848068 0.845189 Mn
0.356910 0.353993 0.349623 Mn
0.957696 0.242182 0.530611 S
0.435387 0.044871 0.753820 S
0.547544 0.957035 0.237500 S
0.748661 0.460523 0.049242 S
0.250722 0.523772 0.955976 S
0.044624 0.756683 0.452054 S
0.402006 0.584676 0.765702 O
0.942379 0.330461 0.014557 O
0.779896 0.378255 0.607972 O
0.021921 0.961939 0.328161 O
0.612726 0.767797 0.378189 O
0.305321 0.014484 0.964090 O
0.683252 0.973244 0.033161 O
0.236541 0.631892 0.370900 O
0.071331 0.671681 0.950732 O
0.358735 0.240238 0.630467 O
0.956151 0.042210 0.660009 O
0.616588 0.385215 0.249548 O
0.983669 0.281251 0.333536 O
0.448299 0.902177 0.708152 O
0.362158 0.973687 0.271179 O
0.691017 0.503566 0.905800 O
0.269463 0.342201 0.963977 O
0.902202 0.714070 0.472764 O
0.116332 0.247619 0.520626 O
0.622409 0.014098 0.722331 O
0.529006 0.108996 0.270949 O
0.729468 0.646061 0.037169 O
0.276897 0.491889 0.115491 O
0.017051 0.724598 0.649334 O
