Mn4 P16 O44                             
   1.00000000000000     
     8.7913125516048289   -0.0185884949093131   -3.0128519398990519
    -1.0898285613173695    8.7093184947209377   -2.9524911638368549
     0.0150076783345189    0.0092594927986782   10.7795512228751047
   Mn   P    O 
     4    16    44
Direct
  0.7304717897858737  0.7449854044272257  0.9797276549664389
  0.2695299525574200  0.2550126544847302  0.0202736131099499
  0.2323767974277118  0.7751250434604060  0.5058244816422501
  0.7676229769934366  0.2248754320316309  0.4941759524194254
  0.9456141134317235  0.0867396363071080  0.7509769525493866
  0.0543880172665467  0.9132603497211065  0.2490230116828300
  0.9214217187142566  0.7640860572804939  0.6083743162168744
  0.0785750343037463  0.2359137408999530  0.3916238579394005
  0.7323818118527896  0.1005165459858688  0.9123917642589703
  0.2676185388097991  0.8994812067120250  0.0876046793810090
  0.5842704312044091  0.7380292519894809  0.4410970825130036
  0.4157275784663881  0.2619726262094559  0.5589026164527056
  0.9209159383508023  0.5564033925303065  0.7656510985641845
  0.0790842919815873  0.4435970521509063  0.2343487116193899
  0.7459036449708663  0.4337188583976257  0.0766268843276023
  0.2540951279585073  0.5662772382753971  0.9233717844678182
  0.4103670087879792  0.1049063342483691  0.7658668814628413
  0.5896335040702709  0.8950964064904952  0.2341335631288715
  0.5988854795048795  0.4139687801196601  0.2811248083406070
  0.4011146087974637  0.5860314078139197  0.7188762435778813
  0.9668305674676887  0.9099493967364012  0.7430143958980793
  0.0331708425591941  0.0900498657655433  0.2569849881590756
  0.8336200998598287  0.0787323365736157  0.6154464496321950
  0.1663818512128046  0.9212708623459989  0.3845552407833424
  0.0959569978088410  0.1800013697303768  0.8152516031844783
  0.9040454614395372  0.8199976608329820  0.1847505820873110
  0.8680610007403189  0.1367217485176653  0.8696935940425661
  0.1319401996384002  0.8632798091268228  0.1303063857382014
  0.7403183168310008  0.7406563574474561  0.5576699346811296
  0.2596785511141420  0.2593477083727791  0.4423325860552012
  0.9880248265078819  0.7672362478765180  0.5039632777566325
  0.0119724094446809  0.2327640721210571  0.4960354400065228
  0.9671378266977726  0.6307948727846977  0.6644023643872572
  0.0328606814069090  0.3692050796806328  0.3355962267579358
  0.7378679132191763  0.2533599278364704  0.0338012116851090
  0.2621317236171379  0.7466348016936024  0.9661997297400404
  0.5897950293062024  0.0894052852545499  0.7824828046565813
  0.4102044288437412  0.9105950748892155  0.2175162655024110
  0.7420622216226676  0.9731803377158172  0.9643555583094283
  0.2579378913735155  0.0268146370224684  0.0356369060464345
  0.6340873433549135  0.8119883889711446  0.3493611830781020
  0.3659128721781642  0.1880157481382554  0.6506414485217391
  0.5321348726986983  0.5657141442921372  0.3528660228804270
  0.4678655362208630  0.4342882247462185  0.6471339421854410
  0.4701999784523778  0.8067426845590830  0.4992571597925064
  0.5297981273751375  0.1932580396972909  0.5007433026476917
  0.0842557873754117  0.5051502007557218  0.8316493019652640
  0.9157437519401768  0.4948457701103379  0.1683474933534441
  0.8153867383788906  0.4147642729147591  0.6811744030705640
  0.1846104664469479  0.5852367905194811  0.3188245009570636
  0.8866823581285672  0.6803912382889408  0.8733220170894498
  0.1133229979067991  0.3196091055276540  0.1266816017231491
  0.6939847226931235  0.4944884066504613  0.9626115706419114
  0.3060145422548217  0.5055093295077171  0.0373886067734475
  0.6555932885894293  0.4775155218892735  0.1784793655493004
  0.3444069279587580  0.5224825134551665  0.8215207270948781
  0.3188933360659902  0.9533656354553202  0.7019515746398639
  0.6811047542235187  0.0466367467875415  0.2980478022270177
  0.4143316401813379  0.2151946602824495  0.9000994845002026
  0.5856722587724832  0.7848059462333410  0.0999033021057372
  0.7340675007678854  0.3890204567071507  0.3864913209629748
  0.2659331537652676  0.6109811441711130  0.6135099951956349
  0.4667823180875601  0.2956784976383915  0.1994261665723087
  0.5332175202349845  0.7043216608402147  0.8005762027404941
 
  0.00000000E+00  0.00000000E+00  0.00000000E+00
  0.00000000E+00  0.00000000E+00  0.00000000E+00
  0.00000000E+00  0.00000000E+00  0.00000000E+00
  0.00000000E+00  0.00000000E+00  0.00000000E+00
  0.00000000E+00  0.00000000E+00  0.00000000E+00
  0.00000000E+00  0.00000000E+00  0.00000000E+00
  0.00000000E+00  0.00000000E+00  0.00000000E+00
  0.00000000E+00  0.00000000E+00  0.00000000E+00
  0.00000000E+00  0.00000000E+00  0.00000000E+00
  0.00000000E+00  0.00000000E+00  0.00000000E+00
  0.00000000E+00  0.00000000E+00  0.00000000E+00
  0.00000000E+00  0.00000000E+00  0.00000000E+00
  0.00000000E+00  0.00000000E+00  0.00000000E+00
  0.00000000E+00  0.00000000E+00  0.00000000E+00
  0.00000000E+00  0.00000000E+00  0.00000000E+00
  0.00000000E+00  0.00000000E+00  0.00000000E+00
  0.00000000E+00  0.00000000E+00  0.00000000E+00
  0.00000000E+00  0.00000000E+00  0.00000000E+00
  0.00000000E+00  0.00000000E+00  0.00000000E+00
  0.00000000E+00  0.00000000E+00  0.00000000E+00
  0.00000000E+00  0.00000000E+00  0.00000000E+00
  0.00000000E+00  0.00000000E+00  0.00000000E+00
  0.00000000E+00  0.00000000E+00  0.00000000E+00
  0.00000000E+00  0.00000000E+00  0.00000000E+00
  0.00000000E+00  0.00000000E+00  0.00000000E+00
  0.00000000E+00  0.00000000E+00  0.00000000E+00
  0.00000000E+00  0.00000000E+00  0.00000000E+00
  0.00000000E+00  0.00000000E+00  0.00000000E+00
  0.00000000E+00  0.00000000E+00  0.00000000E+00
  0.00000000E+00  0.00000000E+00  0.00000000E+00
  0.00000000E+00  0.00000000E+00  0.00000000E+00
  0.00000000E+00  0.00000000E+00  0.00000000E+00
  0.00000000E+00  0.00000000E+00  0.00000000E+00
  0.00000000E+00  0.00000000E+00  0.00000000E+00
  0.00000000E+00  0.00000000E+00  0.00000000E+00
  0.00000000E+00  0.00000000E+00  0.00000000E+00
  0.00000000E+00  0.00000000E+00  0.00000000E+00
  0.00000000E+00  0.00000000E+00  0.00000000E+00
  0.00000000E+00  0.00000000E+00  0.00000000E+00
  0.00000000E+00  0.00000000E+00  0.00000000E+00
  0.00000000E+00  0.00000000E+00  0.00000000E+00
  0.00000000E+00  0.00000000E+00  0.00000000E+00
  0.00000000E+00  0.00000000E+00  0.00000000E+00
  0.00000000E+00  0.00000000E+00  0.00000000E+00
  0.00000000E+00  0.00000000E+00  0.00000000E+00
  0.00000000E+00  0.00000000E+00  0.00000000E+00
  0.00000000E+00  0.00000000E+00  0.00000000E+00
  0.00000000E+00  0.00000000E+00  0.00000000E+00
  0.00000000E+00  0.00000000E+00  0.00000000E+00
  0.00000000E+00  0.00000000E+00  0.00000000E+00
  0.00000000E+00  0.00000000E+00  0.00000000E+00
  0.00000000E+00  0.00000000E+00  0.00000000E+00
  0.00000000E+00  0.00000000E+00  0.00000000E+00
  0.00000000E+00  0.00000000E+00  0.00000000E+00
  0.00000000E+00  0.00000000E+00  0.00000000E+00
  0.00000000E+00  0.00000000E+00  0.00000000E+00
  0.00000000E+00  0.00000000E+00  0.00000000E+00
  0.00000000E+00  0.00000000E+00  0.00000000E+00
  0.00000000E+00  0.00000000E+00  0.00000000E+00
  0.00000000E+00  0.00000000E+00  0.00000000E+00
  0.00000000E+00  0.00000000E+00  0.00000000E+00
  0.00000000E+00  0.00000000E+00  0.00000000E+00
  0.00000000E+00  0.00000000E+00  0.00000000E+00
  0.00000000E+00  0.00000000E+00  0.00000000E+00
