Ca4 V16 P24 O96                         
   1.00000000000000     
    -4.5619630000000004    6.9456080000000000    8.6844570000000001
     5.0891390000000003   -6.6151700000000000    8.7234739999999995
     9.7810570000000006    6.9486230000000004    0.3042620000000000
   Ca   V    P    O 
     4    16    24    96
Direct
  0.5100328925280586  0.6228010180378517  0.4201993227227024
  0.5013434030215916  0.9922837817623394  0.9983952850224852
  1.0002739296782543  0.9976510765233224  0.4972488538553550
  0.0072101201817003  0.4872008550761616  0.9973897713108427
  0.6462192607096905  0.6397850541588816  0.6471624125615407
  0.6429055741639194  0.1428462207438476  0.1462196026805617
  0.1452614435436923  0.1478399925633647  0.6430583301455394
  0.1420279103293166  0.6430492539336610  0.1423865068823054
  0.1392304843456634  0.1427761738825379  0.1406548379015730
  0.1384273539633012  0.6426430636319342  0.6417110019301122
  0.6447510265646159  0.6427555459798657  0.1345840163118831
  0.6382562077945259  0.1425210755102926  0.6418333606089273
  0.8510207200555312  0.8545829153552974  0.8564644037067906
  0.8548842611996333  0.3514918869665548  0.3564338863626659
  0.3519397091688237  0.3553303630556834  0.8557473046567692
  0.3524716774155424  0.8616912429072247  0.3470082078746132
  0.3546792335818233  0.3565382924097086  0.3561235381272579
  0.3459536257647956  0.8541298249159811  0.8520912178847807
  0.8533012748104344  0.8490537987916048  0.3538045197352011
  0.8487658554420801  0.3498202514543385  0.8552615992651655
  0.3858225877109641  0.7450985664754001  0.6101126712765806
  0.3892407125311459  0.2459371137594232  0.1067178079343747
  0.8861628455972050  0.2424262781572900  0.6067632392431258
  0.8904813013416258  0.7450792183830907  0.1036987244100612
  0.3848006911003911  0.6057843166371145  0.2351856137255277
  0.3894287189481040  0.1078679396360686  0.7534874345066761
  0.8901466293681929  0.1050259349052927  0.2531380712130605
  0.8907048515658312  0.6059434218539317  0.7560411298862720
  0.6068953895509093  0.3888222612095644  0.7463053930127969
  0.6075824736008012  0.8842864731705372  0.2424654386074692
  0.1020991019936943  0.8908034473502801  0.7424196618132861
  0.1052446303323171  0.3879599786654698  0.2447271836514426
  0.2476642797708939  0.3918814074084565  0.6049574885756793
  0.2480103186410743  0.8935833818637383  0.1046915112428228
  0.7438139261805261  0.8883484993982612  0.6054165227635028
  0.7513650008136973  0.3876189396829967  0.1098558613717034
  0.7551212101117479  0.6045557413825317  0.3897038721279104
  0.7446808235320435  0.1035425918835575  0.8905735269570532
  0.2465302350757027  0.1082168065109421  0.3906482607641787
  0.2440038637093913  0.6060216475648612  0.8876115543254883
  0.6063014462210394  0.2543246909399536  0.3895730915612065
  0.6044296463376402  0.7540267878974307  0.8927953619905363
  0.1102171293508594  0.7518789814559489  0.3891090090308885
  0.1067413067155705  0.2505924607093382  0.8919823731140611
  0.6815075103309242  0.5841655887098497  0.4954346979276823
  0.6766873861746473  0.0790119776081400  1.0007142225443171
  0.1776895942595495  0.0798596647564334  0.4979058588637861
  0.1742739730206667  0.5820072982455575  0.9964125081854951
  0.1629399802078429  0.4855812611142216  0.6261518616867857
  0.1627178061817524  0.9860166812628843  0.1274821960137703
  0.6606565369747058  0.9842733643066391  0.6212875251691268
  0.6719925964726744  0.4849098469835633  0.1360694536798299
  0.4938403214867422  0.6732965224116565  0.5952764044099449
  0.4934443872009197  0.1720219420037341  0.0805609466550227
  0.9944594739285322  0.1760918099668244  0.5794693074117456
  0.9963242684316140  0.6746156666920683  0.0773079094723373
  0.6260276298751457  0.1702728601413734  0.4844193878792129
  0.6240970563006449  0.6616958607102424  0.9828408431950095
  0.1343339644627140  0.6672571331831425  0.4822739326950372
  0.1290825271074348  0.1626357585062641  0.9832457553871211
  0.5915908789380855  0.5017804577826344  0.6848051772793874
  0.5770190187071113  0.9954182870479489  0.1827872344388634
  0.0785130746336505  1.0016197768412309  0.6781395059630929
  0.0783426260736739  0.4987683663664275  0.1805412274180361
  0.4903306522938303  0.6314543858484081  0.1654457237023862
  0.4880401103347036  0.1329858666480515  0.6709570997354810
  0.9884544846041976  0.1289739560526221  0.1709894605565114
  0.9880138954232781  0.6324421116971325  0.6721886965942153
  0.5091976676149302  0.3676801685153887  0.8256220439188363
  0.5141418986189664  0.8479869589919469  0.3255681197786589
  0.0076037216238420  0.8654909388091967  0.8251576084981893
  0.0132383314918476  0.3630336131940208  0.3307477154568218
  0.4954457312050362  0.3194482425724294  0.4068600211706324
  0.4922755588458820  0.8161275569658309  0.9176364842032292
  1.0012954549282478  0.8186165932241947  0.4141565870288891
  0.9943240533428113  0.3127445170393908  0.9158502613300691
  0.8370067107198187  0.5103624809271877  0.3651215715750536
  0.8307990497703599  0.0107630909720563  0.8673245669102160
  0.3312985577450320  0.0079392769935310  0.3726103107012012
  0.3295386355066654  0.5123803287024584  0.8665034117096414
  0.4127211750361747  0.5049866793159716  0.3127638033309316
  0.4171874358897978  0.9995155248026628  0.8190737166718217
  0.9159153600304609  0.9948734063222190  0.3182370667948764
  0.9191148449688124  0.4974590485128055  0.8213878968402867
  0.3733576395577471  0.8126256267488572  0.5015428669195156
  0.3691712184373794  0.3278546111604336  0.0069186349776768
  0.8633982230839808  0.3256382596978678  0.5084703922348035
  0.8702315554344331  0.8310433462253211  0.0091994652801223
  0.3177029009006484  0.4169264314589159  0.4989568547980761
  0.3150730450447818  0.9202465919292047  0.9954787036954516
  0.8225754001193379  0.9116890544127079  0.5031058471156395
  0.8228232009859531  0.4138986034986576  0.0036468591948059
  0.2932858716634509  0.6631005446708590  0.6298217620268999
  0.2936559376798862  0.1659299199727219  0.1225081676372338
  0.7959262178177612  0.1570078905492532  0.6209174513679927
  0.7988946463533959  0.6604559483038100  0.1163905299061523
  0.7905459993170680  0.5930374225584981  0.6851230404567960
  0.7874696511624220  0.0950812872896347  0.1857662160011886
  0.2881725972408177  0.0960182735984697  0.6833900912590335
  0.2881479038807562  0.5863273121275763  0.1651125176651376
  0.6284226578226799  0.3019428099829095  0.6599496622591956
  0.6281862298351151  0.8023412001364938  0.1495926388570498
  0.1197099602698798  0.8052746796471273  0.6530026757564411
  0.1168437625443477  0.3040259595232135  0.1529000479604852
  0.6836358586634312  0.7815629228766959  0.5887502737198950
  0.6842001690515148  0.2855727971883800  0.0953420150702298
  0.1833172287548473  0.2855912552936125  0.5900920498571218
  0.1890724265681984  0.7856106536611608  0.0970156729947843
  0.6678961476126665  0.6292292110775444  0.3005646007877569
  0.6586799846124831  0.1181628762634036  0.8014169909246525
  0.1628016424594613  0.1205653953068846  0.3001138940987665
  0.1562163928193898  0.6217214847802569  0.8004975495461579
  0.6013819109222391  0.6970214564638508  0.7837395089041330
  0.5976921034875067  0.1867580770167240  0.2834047821969116
  0.0992307315719718  0.1907578134391976  0.7830852873849760
  0.1011464245901079  0.6861318744587721  0.2825588121563448
  0.4032054735578276  0.3118778435020790  0.2083299999355226
  0.3953455995515086  0.8193044310646407  0.7071001273089076
  0.9016226710671478  0.8061550233512284  0.2102084694013191
  0.8959229127131256  0.3083003088284059  0.7101410570124310
  0.3605218246887197  0.6992055980413286  0.3169852247328546
  0.3701069539560453  0.1958755668273870  0.8388197297536482
  0.8749659088720180  0.1910736494987220  0.3413132208610227
  0.8689319014246958  0.6944932389713692  0.8409602372474003
  0.2143058150446190  0.3955804576155609  0.3056190235668613
  0.2078038453974368  0.9016701824435667  0.8090437111144299
  0.7111033073169858  0.8949699606554389  0.3107500616958173
  0.7110174974119312  0.3979631213926881  0.8171957585081793
  0.8206477754193320  0.8691616552999945  0.7038680318566745
  0.8370206124038011  0.3661866797826557  0.2011208101380181
  0.3256387882416768  0.3697114976858241  0.7017699987522917
  0.3400509305472004  0.8851239528156807  0.1906197460226543
  0.3129005032512500  0.2092936884508192  0.4021377158056779
  0.3065407586019883  0.7118731009784163  0.8992453014420297
  0.8205923159582715  0.7088384124134843  0.4040478308263641
  0.8073346822355990  0.2087633838283425  0.9037977835706834
  0.6946993932560556  0.3393366262292555  0.3711222218632667
  0.6901297177404753  0.8433196289683595  0.8902997687035901
  0.1957160730158887  0.8405268861082006  0.3682638105156490
  0.1902569574049542  0.3422807623839297  0.8831120761887231
 
             NaN             NaN             NaN
             NaN             NaN             NaN
             NaN             NaN             NaN
             NaN             NaN             NaN
             NaN             NaN             NaN
             NaN             NaN             NaN
             NaN             NaN             NaN
             NaN             NaN             NaN
             NaN             NaN             NaN
             NaN             NaN             NaN
             NaN             NaN             NaN
             NaN             NaN             NaN
             NaN             NaN             NaN
             NaN             NaN             NaN
             NaN             NaN             NaN
             NaN             NaN             NaN
             NaN             NaN             NaN
             NaN             NaN             NaN
             NaN             NaN             NaN
             NaN             NaN             NaN
             NaN             NaN             NaN
             NaN             NaN             NaN
             NaN             NaN             NaN
             NaN             NaN             NaN
             NaN             NaN             NaN
             NaN             NaN             NaN
             NaN             NaN             NaN
             NaN             NaN             NaN
             NaN             NaN             NaN
             NaN             NaN             NaN
             NaN             NaN             NaN
             NaN             NaN             NaN
             NaN             NaN             NaN
             NaN             NaN             NaN
             NaN             NaN             NaN
             NaN             NaN             NaN
             NaN             NaN             NaN
             NaN             NaN             NaN
             NaN             NaN             NaN
             NaN             NaN             NaN
             NaN             NaN             NaN
             NaN             NaN             NaN
             NaN             NaN             NaN
             NaN             NaN             NaN
             NaN             NaN             NaN
             NaN             NaN             NaN
             NaN             NaN             NaN
             NaN             NaN             NaN
             NaN             NaN             NaN
             NaN             NaN             NaN
             NaN             NaN             NaN
             NaN             NaN             NaN
             NaN             NaN             NaN
             NaN             NaN             NaN
             NaN             NaN             NaN
             NaN             NaN             NaN
             NaN             NaN             NaN
             NaN             NaN             NaN
             NaN             NaN             NaN
             NaN             NaN             NaN
             NaN             NaN             NaN
             NaN             NaN             NaN
             NaN             NaN             NaN
             NaN             NaN             NaN
             NaN             NaN             NaN
             NaN             NaN             NaN
             NaN             NaN             NaN
             NaN             NaN             NaN
             NaN             NaN             NaN
             NaN             NaN             NaN
             NaN             NaN             NaN
             NaN             NaN             NaN
             NaN             NaN             NaN
             NaN             NaN             NaN
             NaN             NaN             NaN
             NaN             NaN             NaN
             NaN             NaN             NaN
             NaN             NaN             NaN
             NaN             NaN             NaN
             NaN             NaN             NaN
             NaN             NaN             NaN
             NaN             NaN             NaN
             NaN             NaN             NaN
             NaN             NaN             NaN
             NaN             NaN             NaN
             NaN             NaN             NaN
             NaN             NaN             NaN
             NaN             NaN             NaN
             NaN             NaN             NaN
             NaN             NaN             NaN
             NaN             NaN             NaN
             NaN             NaN             NaN
             NaN             NaN             NaN
             NaN             NaN             NaN
             NaN             NaN             NaN
             NaN             NaN             NaN
             NaN             NaN             NaN
             NaN             NaN             NaN
             NaN             NaN             NaN
             NaN             NaN             NaN
             NaN             NaN             NaN
             NaN             NaN             NaN
             NaN             NaN             NaN
             NaN             NaN             NaN
             NaN             NaN             NaN
             NaN             NaN             NaN
             NaN             NaN             NaN
             NaN             NaN             NaN
             NaN             NaN             NaN
             NaN             NaN             NaN
             NaN             NaN             NaN
             NaN             NaN             NaN
             NaN             NaN             NaN
             NaN             NaN             NaN
             NaN             NaN             NaN
             NaN             NaN             NaN
             NaN             NaN             NaN
             NaN             NaN             NaN
             NaN             NaN             NaN
             NaN             NaN             NaN
             NaN             NaN             NaN
             NaN             NaN             NaN
             NaN             NaN             NaN
             NaN             NaN             NaN
             NaN             NaN             NaN
             NaN             NaN             NaN
             NaN             NaN             NaN
             NaN             NaN             NaN
             NaN             NaN             NaN
             NaN             NaN             NaN
             NaN             NaN             NaN
             NaN             NaN             NaN
             NaN             NaN             NaN
             NaN             NaN             NaN
             NaN             NaN             NaN
             NaN             NaN             NaN
             NaN             NaN             NaN
             NaN             NaN             NaN
             NaN             NaN             NaN
             NaN             NaN             NaN
