Ca4 V16 P24 O96
1.0
-4.561963 6.945608 8.684457
5.089139 -6.615170 8.723474
9.781057 6.948623 0.304262
Ca V P O
4 16 24 96
direct
0.534842 0.616599 0.462575 Ca
0.505787 0.996206 0.989491 Ca
0.999444 -0.002263 0.495062 Ca
0.010462 0.488904 0.995129 Ca
0.642838 0.637145 0.647110 V
0.643966 0.145983 0.141942 V
0.143616 0.145481 0.642862 V
0.143253 0.645851 0.143246 V
0.138743 0.144099 0.140520 V
0.137438 0.642196 0.641536 V
0.639045 0.642027 0.138527 V
0.637865 0.141631 0.640841 V
0.852149 0.854233 0.855626 V
0.854724 0.351113 0.355363 V
0.352139 0.354109 0.855644 V
0.350118 0.858255 0.352564 V
0.353549 0.354148 0.354945 V
0.347688 0.851363 0.852923 V
0.852986 0.848895 0.351540 V
0.850572 0.351353 0.852780 V
0.386713 0.742683 0.606788 P
0.388504 0.245257 0.106382 P
0.886389 0.243183 0.606058 P
0.889445 0.744440 0.104045 P
0.391772 0.607327 0.252360 P
0.388644 0.106773 0.751977 P
0.890246 0.105709 0.251861 P
0.889570 0.606572 0.755433 P
0.606060 0.386555 0.746873 P
0.604719 0.890841 0.239026 P
0.103548 0.889567 0.742520 P
0.105822 0.388909 0.244366 P
0.248007 0.389966 0.606538 P
0.245837 0.891001 0.104796 P
0.744955 0.887665 0.605092 P
0.751367 0.389237 0.106937 P
0.749613 0.602376 0.388426 P
0.746649 0.104427 0.887074 P
0.242997 0.107716 0.388673 P
0.247104 0.604711 0.888804 P
0.606671 0.250361 0.389275 P
0.606404 0.753287 0.892051 P
0.105427 0.747815 0.391967 P
0.107104 0.250868 0.890775 P
0.681700 0.582928 0.498127 O
0.680129 0.081253 0.997749 O
0.175721 0.079885 0.497455 O
0.180932 0.579025 0.999182 O
0.165663 0.484940 0.629544 O
0.164211 0.986380 0.127559 O
0.663702 0.984619 0.624931 O
0.671364 0.485806 0.130466 O
0.493039 0.671050 0.586109 O
0.493669 0.174050 0.077473 O
0.993605 0.175007 0.579318 O
0.993470 0.670933 0.077985 O
0.627505 0.164309 0.482307 O
0.626674 0.662547 0.981362 O
0.121404 0.659479 0.483244 O
0.130901 0.164308 0.982891 O
0.583491 0.498381 0.683250 O
0.582683 0.999527 0.172582 O
0.078772 -0.000034 0.677645 O
0.082213 0.499799 0.179801 O
0.490180 0.624985 0.167820 O
0.487504 0.132704 0.669713 O
0.988024 0.129234 0.168759 O
0.987752 0.632505 0.672892 O
0.510930 0.362917 0.828394 O
0.509755 0.873993 0.324758 O
0.009113 0.864495 0.825273 O
0.012448 0.365146 0.329053 O
0.495158 0.313707 0.410795 O
0.494524 0.816446 0.914898 O
-0.001000 0.819093 0.414787 O
0.995044 0.313371 0.914988 O
0.833119 0.508972 0.364287 O
0.832302 0.011224 0.863798 O
0.325448 0.009278 0.366083 O
0.333035 0.511872 0.864943 O
0.412959 0.499446 0.318432 O
0.416644 0.997255 0.815760 O
0.914931 0.995560 0.316668 O
0.918674 0.497548 0.819604 O
0.376447 0.824766 0.507024 O
0.365243 0.327054 0.007236 O
0.863974 0.325670 0.507603 O
0.870605 0.829149 0.007467 O
0.319035 0.413470 0.500724 O
0.319660 0.917072 0.999940 O
0.821502 0.912673 0.501638 O
0.825125 0.414992 0.002159 O
0.291450 0.663884 0.618264 O
0.294370 0.164246 0.124902 O
0.795236 0.159096 0.622354 O
0.793268 0.666504 0.120525 O
0.788441 0.595379 0.685674 O
0.787553 0.097790 0.184448 O
0.287523 0.095701 0.682081 O
0.287648 0.603696 0.186466 O
0.626305 0.302053 0.657517 O
0.614671 0.802439 0.152621 O
0.121082 0.804087 0.652982 O
0.117633 0.304753 0.152625 O
0.680174 0.784620 0.585909 O
0.684734 0.287179 0.089959 O
0.182260 0.285230 0.592277 O
0.180976 0.786758 0.088952 O
0.661593 0.625333 0.301639 O
0.657908 0.118088 0.800571 O
0.156518 0.123509 0.300560 O
0.159952 0.622192 0.801401 O
0.602770 0.696331 0.781061 O
0.597935 0.187547 0.280591 O
0.099012 0.189375 0.782991 O
0.095109 0.689952 0.282008 O
0.403410 0.311454 0.208047 O
0.396404 0.808838 0.709929 O
0.903959 0.808732 0.208052 O
0.898411 0.310549 0.708229 O
0.384826 0.698707 0.335229 O
0.370145 0.193282 0.839107 O
0.876281 0.191384 0.340414 O
0.869428 0.693897 0.841439 O
0.213799 0.395927 0.306714 O
0.209501 0.900574 0.808771 O
0.709914 0.893954 0.306529 O
0.711601 0.399746 0.813366 O
0.823260 0.865619 0.702100 O
0.833813 0.365914 0.200745 O
0.328736 0.367581 0.701625 O
0.328410 0.869192 0.198225 O
0.309244 0.209180 0.400704 O
0.309019 0.711000 0.902284 O
0.814209 0.708712 0.399121 O
0.809248 0.209986 0.898215 O
0.693604 0.337356 0.374603 O
0.691279 0.843407 0.886673 O
0.197089 0.830217 0.382205 O
0.190162 0.342982 0.879948 O
