Ca2 Fe4 S6 O24                          
   1.00000000000000     
     7.6568560000000003    0.0293060000000000    4.4498749999999996
     2.5559919999999998    7.0760059999999996    4.4363120000000000
     0.0598700000000000    0.0056350000000000    8.8293370000000007
   Ca   Fe   S    O 
     2     4     6    24
Direct
  0.2520394706298477  0.8369143208136270  0.5787393540981016
  0.9600507158378211  0.0236137445700169  0.0045136994382397
  0.6598992709403556  0.6203210176083541  0.6580315167511263
  0.1474117497750201  0.1454910940934193  0.1378325008674544
  0.8203702929678068  0.8531919960123308  0.8461026859909401
  0.3681785157458450  0.3651070245963349  0.3479410049223592
  0.9699405378077424  0.2401845333359676  0.5389597507056177
  0.4273420076873091  0.0433745292167458  0.7509960984756522
  0.5576957198594277  0.9552567220363197  0.2450701830355667
  0.7537403712509371  0.4444838517643223  0.0392372221440509
  0.2526614638929858  0.5453620967930246  0.9597098510909309
  0.0426054834199337  0.7456168115961247  0.4442928529523994
  0.4138525253063235  0.5578589964255589  0.7814596483401681
  0.8852156570288433  0.2569430415176434  0.1137210140532177
  0.7983824382254089  0.3984501873717283  0.5494290966137695
  0.0645433353310371  0.8959306864012210  0.2584372692986414
  0.5705767027513892  0.7891538859818723  0.4168682394667526
  0.2375198924045316  0.0906844229046463  0.8940644870047102
  0.7258892611539749  0.9093277343851739  0.0866966401815506
  0.2221143548938541  0.5949014914466745  0.4471200570723219
  0.1022082591092400  0.7335830644843728  0.9144128799884301
  0.4408218209518359  0.2071691290816131  0.5815235354615306
  0.9454846977140043  0.0729381995898769  0.7203926371736371
  0.5777403801247963  0.4857477586401473  0.1867027129534023
  0.0203440407413686  0.1713225259245221  0.3936178465380880
  0.4496142812339389  0.8831701122079714  0.7165690705903217
  0.3863817875453575  0.9877531366580642  0.2271950284793132
  0.7349028139009455  0.4270441417134699  0.8911732487635681
  0.1978211393625800  0.3947750836999396  0.0018598370244599
  0.8979914397496015  0.6834502123753481  0.4854354785515673
  0.1281896111483034  0.2712956665748038  0.5169361921737944
  0.5629690857667512  0.9924605411057322  0.8305152239480338
  0.5536088449396340  0.1186022615705584  0.2559867939778405
  0.8374381909308565  0.5880170613273654  0.9586075362632804
  0.2909380577336829  0.5268621530930213  0.1105930139285851
 -0.0098344285685032  0.8254127430591178  0.5847289693571681
 
             NaN             NaN             NaN
             NaN             NaN             NaN
             NaN             NaN             NaN
             NaN             NaN             NaN
             NaN             NaN             NaN
             NaN             NaN             NaN
             NaN             NaN             NaN
             NaN             NaN             NaN
             NaN             NaN             NaN
             NaN             NaN             NaN
             NaN             NaN             NaN
             NaN             NaN             NaN
             NaN             NaN             NaN
             NaN             NaN             NaN
             NaN             NaN             NaN
             NaN             NaN             NaN
             NaN             NaN             NaN
             NaN             NaN             NaN
             NaN             NaN             NaN
             NaN             NaN             NaN
             NaN             NaN             NaN
             NaN             NaN             NaN
             NaN             NaN             NaN
             NaN             NaN             NaN
             NaN             NaN             NaN
             NaN             NaN             NaN
             NaN             NaN             NaN
             NaN             NaN             NaN
             NaN             NaN             NaN
             NaN             NaN             NaN
             NaN             NaN             NaN
             NaN             NaN             NaN
             NaN             NaN             NaN
             NaN             NaN             NaN
             NaN             NaN             NaN
             NaN             NaN             NaN
