Ca2 Fe4 S6 O24                          
   1.00000000000000     
     7.6568560000000003    0.0293060000000000    4.4498749999999996
     2.5559919999999998    7.0760059999999996    4.4363120000000000
     0.0598700000000000    0.0056350000000000    8.8293370000000007
   Ca   Fe   S    O 
     2     4     6    24
Direct
  0.2546650611307622  0.8431488471886416  0.5805169964753732
  0.9754455027503867  0.0080167698476125  0.0060919477967826
  0.6587529429987945  0.6280816089482971  0.6555347723481433
  0.1467450396988489  0.1465206510997066  0.1376322276585209
  0.8249006745483274  0.8490188634301473  0.8460238583654430
  0.3641454627184888  0.3612583554970631  0.3472211480064022
  0.9705123436462029  0.2401007397691572  0.5373793012297029
  0.4307240762829327  0.0465687829619504  0.7444521177167769
  0.5525185649631003  0.9633317681925441  0.2411523885615595
  0.7464733598538654  0.4433463274297343  0.0478149815877214
  0.2522029976324696  0.5458574939671340  0.9617168828223036
  0.0487021615491482  0.7381996611594277  0.4440987219146574
  0.4120698989720106  0.5593814000352302  0.7823969900658397
  0.8865585803072155  0.2535547364979758  0.1044317733754852
  0.8015851725105181  0.3999873750513809  0.5531032693290773
  0.0743221289764506  0.8909577420098299  0.2603184330204744
  0.5721264201948731  0.7984265503885249  0.4130199298600789
  0.2426660809195983  0.0955701138804685  0.8901342078072917
  0.7218581471179353  0.9228245112115133  0.0822815156212602
  0.2229996678237229  0.5787704297622212  0.4461806877410975
  0.0983940044838311  0.7325396376153865  0.9143200646137627
  0.4460586981216711  0.2072137256180773  0.5734221034355094
  0.9501421356928761  0.0724442961376424  0.7191280327969700
  0.5743109873342984  0.4668430267873049  0.2041455374081083
  1.0109069932444994  0.1727145030837094  0.3942800564196809
  0.4437129497996726  0.8858158960465733  0.7171407262473151
  0.3843704893000829 -0.0168290449551828  0.2260584978303169
  0.7229242446318312  0.4469584492572408  0.8914954150416654
  0.2004102747425736  0.3920320082416290  1.0071758795457706
  0.8965148492830350  0.6884754899924930  0.4828971787634514
  0.1360712704637112  0.2648084903106165  0.5079346436483536
  0.5718787589132213  0.9913951041422173  0.8193379518177583
  0.5356942015243367  0.1328438627593224  0.2516570415483431
  0.8244405633804104  0.5860388008773285  0.9856220959289187
  0.2859262551503993  0.5362316484111405  0.1105712114327913
  0.0052566200087965  0.8087743828907271  0.5886560458896626
 
             NaN             NaN             NaN
             NaN             NaN             NaN
             NaN             NaN             NaN
             NaN             NaN             NaN
             NaN             NaN             NaN
             NaN             NaN             NaN
             NaN             NaN             NaN
             NaN             NaN             NaN
             NaN             NaN             NaN
             NaN             NaN             NaN
             NaN             NaN             NaN
             NaN             NaN             NaN
             NaN             NaN             NaN
             NaN             NaN             NaN
             NaN             NaN             NaN
             NaN             NaN             NaN
             NaN             NaN             NaN
             NaN             NaN             NaN
             NaN             NaN             NaN
             NaN             NaN             NaN
             NaN             NaN             NaN
             NaN             NaN             NaN
             NaN             NaN             NaN
             NaN             NaN             NaN
             NaN             NaN             NaN
             NaN             NaN             NaN
             NaN             NaN             NaN
             NaN             NaN             NaN
             NaN             NaN             NaN
             NaN             NaN             NaN
             NaN             NaN             NaN
             NaN             NaN             NaN
             NaN             NaN             NaN
             NaN             NaN             NaN
             NaN             NaN             NaN
             NaN             NaN             NaN
