Ca1 Fe4 S6 O24
1.0
7.578390 0.182848 4.548553
2.659368 7.092480 4.566486
0.263241 0.206350 8.839853
Ca Fe S O
1 4 6 24
direct
0.372754 0.689914 0.554200 Ca
0.651646 0.642694 0.647665 Fe
0.139245 0.145725 0.143362 Fe
0.844286 0.847144 0.851526 Fe
0.354667 0.350442 0.348287 Fe
0.951808 0.249889 0.530715 S
0.455039 0.039449 0.744624 S
0.537786 0.959187 0.247420 S
0.746980 0.454816 0.043389 S
0.248313 0.535075 0.955505 S
0.045780 0.746420 0.458858 S
0.394220 0.589305 0.764823 O
0.928875 0.299902 0.034379 O
0.779762 0.402818 0.584958 O
0.048513 0.925613 0.301878 O
0.593334 0.770652 0.396420 O
0.313333 0.033863 0.934075 O
0.677799 0.959725 0.060025 O
0.220647 0.592569 0.408012 O
0.067811 0.693232 0.954402 O
0.397150 0.229503 0.601242 O
0.949342 0.066378 0.686802 O
0.601737 0.406464 0.232229 O
0.958642 0.252603 0.360768 O
0.469036 0.893714 0.699871 O
0.349214 0.985136 0.266554 O
0.690225 0.491307 0.896066 O
0.240349 0.363184 0.980249 O
0.881668 0.715495 0.502115 O
0.119234 0.271232 0.496920 O
0.641019 0.004590 0.733403 O
0.521487 0.107679 0.287084 O
0.760305 0.625480 0.015327 O
0.297884 0.504344 0.104324 O
0.041441 0.748302 0.626389 O
