Ca4 V4 P6 O24                           
   1.00000000000000     
     2.5849920000000002    7.2751560000000000    4.3578599999999996
     0.0124880000000000    0.0355740000000000    8.8175509999999999
     7.6939690000000001    0.0294620000000000    4.3149940000000004
   Ca   V    P    O 
     4     4     6    24
Direct
  0.2516418572292423  0.8536542791267006  0.5772573986858157
  0.9585196111771884  0.0036939664790632  0.0186646561213634
  0.3920133151970046  0.7451391161605241  0.1072693977277985
  0.1415342120804958  0.3875002673279663  0.7480412610483311
  0.6518207371250665  0.6177308351355641  0.6401001370701727
  0.1438684228999059  0.1422268635375614  0.1533106235329954
  0.8447697512332315  0.8555671086710335  0.8492984697965792
  0.3613933556073912  0.3487697460595510  0.3482304089499024
  0.2481524372078210  0.5508710543581277  0.9490780318166230
  0.0345901787280350  0.7496688281191692  0.4501810419760725
  0.9625145295329153  0.2472619576768994  0.5579682984151351
  0.4545482269882282  0.0255591987370588  0.7490607675636848
  0.5499243939762264  0.9462809360337910  0.2428462118321966
  0.7543789229051291  0.4484550316538094  0.0253794103738859
  0.5630691632843279  0.7927719054502526  0.4267084699789271
  0.2602810749948535  0.0620946576481228  0.9082270046360672
  0.4078275434103544  0.5664730188364067  0.7630711248265453
  0.9186578500491761  0.2683243833799431  0.0510123064909839
  0.7844774157143692  0.4080397067594582  0.5518945796328910
  0.0674022530394853  0.8994101625004074  0.2590966473297390
  0.9271715104419106  0.0834347527623112  0.7408379363564790
  0.5869386130837668  0.4527277661725492  0.2001416299371729
  0.7331721089594059  0.8983669084984252  0.0903681106618912
  0.2247324157266770  0.5916639122176514  0.4378139699588665
  0.0934657604808475  0.7411719593313015  0.9038594217023230
  0.4379414927363123  0.1997686898547090  0.5849711841366476
  0.1943273347623391  0.3927220153895583  0.9883349458389973
  0.8819948064800276  0.6889197802455265  0.4994176310791763
  0.0492747516637254  0.1684362680933873  0.4035500020106973
  0.4780250962823988  0.8480027915476599  0.7342373750723773
  0.3885897161535731  0.9396228150107815  0.2235984748752020
  0.7104788593436261  0.4637050251651991  0.8704379386187979
  0.2841010386139558  0.5398640694658293  0.1069952055006546
  0.0025234638696380  0.8135193060366183  0.6009579282573104
  0.1098086430443671  0.2916974625799564  0.5592919599066405
  0.5963806054786396  0.9847683397900069  0.8231444504159103
  0.5099800012199985  0.1309130529668154  0.2476169631662316
  0.8198047974097107  0.6079051048233266  0.9588436221620622
 
             NaN             NaN             NaN
             NaN             NaN             NaN
             NaN             NaN             NaN
             NaN             NaN             NaN
             NaN             NaN             NaN
             NaN             NaN             NaN
             NaN             NaN             NaN
             NaN             NaN             NaN
             NaN             NaN             NaN
             NaN             NaN             NaN
             NaN             NaN             NaN
             NaN             NaN             NaN
             NaN             NaN             NaN
             NaN             NaN             NaN
             NaN             NaN             NaN
             NaN             NaN             NaN
             NaN             NaN             NaN
             NaN             NaN             NaN
             NaN             NaN             NaN
             NaN             NaN             NaN
             NaN             NaN             NaN
             NaN             NaN             NaN
             NaN             NaN             NaN
             NaN             NaN             NaN
             NaN             NaN             NaN
             NaN             NaN             NaN
             NaN             NaN             NaN
             NaN             NaN             NaN
             NaN             NaN             NaN
             NaN             NaN             NaN
             NaN             NaN             NaN
             NaN             NaN             NaN
             NaN             NaN             NaN
             NaN             NaN             NaN
             NaN             NaN             NaN
             NaN             NaN             NaN
             NaN             NaN             NaN
             NaN             NaN             NaN
