Ca4 V4 P6 O24                           
   1.00000000000000     
     2.5849920000000002    7.2751560000000000    4.3578599999999996
     0.0124880000000000    0.0355740000000000    8.8175509999999999
     7.6939690000000001    0.0294620000000000    4.3149940000000004
   Ca   V    P    O 
     4     4     6    24
Direct
  0.2516394297043242  0.8536311805019561  0.5772603943034255
  0.9585307624416008  0.0036868821829700  0.0186652895860129
  0.3920108612555563  0.7451461194246006  0.1072637536753174
  0.1415419932748612  0.3875008104623944  0.7480339937712189
  0.6518361626187189  0.6177100307118646  0.6400896228319977
  0.1438573020085288  0.1422322515103622  0.1533198270088793
  0.8447723434602519  0.8555813127193527  0.8493078833253354
  0.3613885846888474  0.3487603206110521  0.3482468869220203
  0.2481585022697384  0.5508759790404979  0.9490705202355034
  0.0345777174056233  0.7496756481289407  0.4501801238079355
  0.9625171397656074  0.2472769266017061  0.5579385858639783
  0.4545399104527878  0.0255767644791123  0.7490509400830883
  0.5499302486130665  0.9462947339618726  0.2428227703518688
  0.7543917447746844  0.4484467114289037  0.0253879279608358
  0.5630788308774303  0.7927508486039452  0.4267281154996576
  0.2602805643570827  0.0620896954757406  0.9082278742781528
  0.4078101147331190  0.5664714465665083  0.7630828027688094
  0.9186584192963705  0.2683296160658293  0.0510118659658384
  0.7844798534191422  0.4080300400533370  0.5519004464705394
  0.0674029654903078  0.8994150084970670  0.2590931819091778
  0.9271709571386154  0.0834355323308166  0.7408417768646809
  0.5869464809120002  0.4527304249325934  0.2001356407239983
  0.7331566781914867  0.8983722479696171  0.0903782677323339
  0.2247316738014702  0.5916609921893095  0.4378196792403961
  0.0934661501052863  0.7411758648206271  0.9038554169561558
  0.4379437226701400  0.1997660829469708  0.5849674194612514
  0.1943257082267009  0.3927205002898121  0.9883383644461758
  0.8820094368539642  0.6889160315939983  0.4994071318450113
  0.0492736772394177  0.1684404054808673  0.4035481273335338
  0.4780252434945874  0.8480042444305241  0.7342375600185959
  0.3885968016171795  0.9396138642059902  0.2236047860594938
  0.7104694700676230  0.4637284622627271  0.8704088819911125
  0.2840968367561805  0.5398668775683652  0.1069995635425122
  0.0025148263172777  0.8135177440235893  0.6009640743082669
  0.1098077823467181  0.2916886594907991  0.5592974262295756
  0.5963747856164149  0.9847625978808888  0.8231563956117155
  0.5099782975527506  0.1309118059605957  0.2476206260956833
  0.8198050300147374  0.6079072729431952  0.9588508007534308
 
             NaN             NaN             NaN
             NaN             NaN             NaN
             NaN             NaN             NaN
             NaN             NaN             NaN
             NaN             NaN             NaN
             NaN             NaN             NaN
             NaN             NaN             NaN
             NaN             NaN             NaN
             NaN             NaN             NaN
             NaN             NaN             NaN
             NaN             NaN             NaN
             NaN             NaN             NaN
             NaN             NaN             NaN
             NaN             NaN             NaN
             NaN             NaN             NaN
             NaN             NaN             NaN
             NaN             NaN             NaN
             NaN             NaN             NaN
             NaN             NaN             NaN
             NaN             NaN             NaN
             NaN             NaN             NaN
             NaN             NaN             NaN
             NaN             NaN             NaN
             NaN             NaN             NaN
             NaN             NaN             NaN
             NaN             NaN             NaN
             NaN             NaN             NaN
             NaN             NaN             NaN
             NaN             NaN             NaN
             NaN             NaN             NaN
             NaN             NaN             NaN
             NaN             NaN             NaN
             NaN             NaN             NaN
             NaN             NaN             NaN
             NaN             NaN             NaN
             NaN             NaN             NaN
             NaN             NaN             NaN
             NaN             NaN             NaN
