Fe4 P4
1.0
5.191000 0.000000 0.000000
0.000000 3.099000 0.000000
0.000000 0.000000 5.792000
Fe P
4 4
direct
0.502000 0.250000 0.300000 Fe2+
0.002000 0.250000 0.200000 Fe2+
0.498000 0.750000 0.700000 Fe2+
0.998000 0.750000 0.800000 Fe2+
0.692000 0.250000 0.931000 P2-
0.192000 0.250000 0.569000 P2-
0.308000 0.750000 0.069000 P2-
0.808000 0.750000 0.431000 P2-
