Ca4 Ni4 P6 O24                          
   1.00000000000000     
     2.5424050000000000    7.2814259999999997    4.3829130000000003
    -0.0540290000000000    0.0708940000000000    8.6702429999999993
     7.5811630000000001    0.0911960000000000    4.2470850000000002
   Ca   Ni   P    O 
     4     4     6    24
Direct
  0.5520548135602438  0.4823161843224948  0.5055653206137348
  0.9561696703100563  0.9990868996331117  0.0111944426110235
  0.3596553984535222  0.7611758347845681  0.1218536899864479
  0.1067332387736233  0.3912256639426728  0.7649952754031161
  0.6277407800220810  0.6760912478926041  0.6455500860337985
  0.1550137627092830  0.1719561789202545  0.2106242358306718
  0.8542682944158795  0.8641161364587089  0.8288636854283217
  0.3549289634794826  0.3579738418979304  0.3555802910054042
  0.2401869639949166  0.5592608007894264  0.9467456687394142
  0.0285384769550279  0.7579349191313205  0.4674656459916922
  0.9395494497141276  0.2714955997757419  0.5715450739007312
  0.4421873978116214  0.0458939028978278  0.7477724996188411
  0.5461183687211235  0.9502716876895833  0.2417176924233815
  0.7300613222942474  0.4889210977706102  0.0208782688740697
  0.6111692991565303  0.7571152671470770  0.3850274734476156
  0.2437471333947891  0.0560074620112016  0.8970311614475531
  0.3876335279739226  0.6020356495182764  0.7522505939388964
  0.8468816500684280  0.2965388660145764 -0.0027082033493451
  0.7488418475878653  0.4087566003096116  0.6469680936742528
  0.0392149876185170  0.8506437748445017  0.2653497711687887
  0.9505546626580071  0.0848042175527673  0.7243985865744282
  0.6021743753499754  0.4808448032669784  0.2251508130215100
  0.7079694708122358  0.9507230440571834  0.0595635413801294
  0.2308861129029564  0.6084878519269710  0.4616032144918842
  0.0663648358483896  0.7319828496808557  0.9447370963694962
  0.4294131972394580  0.2499566338381600  0.6219445800152041
  0.2169444745490588  0.3853465776552869  0.9688454689545728
  0.8964840543433649  0.6490627919892807  0.5848051529152999
  0.9321165431362952  0.2848563374918110  0.3926819703567405
  0.4820904287177849  0.9339050925885114  0.6321677109951982
  0.3791697893684235  0.9479458023334069  0.2289499878465702
  0.5945260287049441  0.6006135485311720  0.9146701224664328
  0.2879630760259185  0.5302706641559763  0.1072907806765201
 -0.0132322320469310  0.8916989981960926  0.5535998275016097
  0.1015687168248376  0.3173851702923722  0.5379501957749526
  0.5747998278113091  0.9582285190148523  0.8455664560707671
  0.5018237646991449  0.1173960913721687  0.2844362418120073
  0.8621478061962505  0.5872690716404563  0.9500887292338217
 
             NaN             NaN             NaN
             NaN             NaN             NaN
             NaN             NaN             NaN
             NaN             NaN             NaN
             NaN             NaN             NaN
             NaN             NaN             NaN
             NaN             NaN             NaN
             NaN             NaN             NaN
             NaN             NaN             NaN
             NaN             NaN             NaN
             NaN             NaN             NaN
             NaN             NaN             NaN
             NaN             NaN             NaN
             NaN             NaN             NaN
             NaN             NaN             NaN
             NaN             NaN             NaN
             NaN             NaN             NaN
             NaN             NaN             NaN
             NaN             NaN             NaN
             NaN             NaN             NaN
             NaN             NaN             NaN
             NaN             NaN             NaN
             NaN             NaN             NaN
             NaN             NaN             NaN
             NaN             NaN             NaN
             NaN             NaN             NaN
             NaN             NaN             NaN
             NaN             NaN             NaN
             NaN             NaN             NaN
             NaN             NaN             NaN
             NaN             NaN             NaN
             NaN             NaN             NaN
             NaN             NaN             NaN
             NaN             NaN             NaN
             NaN             NaN             NaN
             NaN             NaN             NaN
             NaN             NaN             NaN
             NaN             NaN             NaN
