Ca1 Fe4 S6 O24                          
   1.00000000000000     
     7.5690340000000003    0.2014490000000000    4.5744470000000002
     2.6779970000000000    7.0746529999999996    4.5853580000000003
     0.2939960000000000    0.2199380000000000    8.8438479999999995
   Ca   Fe   S    O 
     1     4     6    24
Direct
  0.3313671795549294  0.6875060659272140  0.5282541362726145
  0.6586379321533856  0.6374297203757447  0.6514223993334435
  0.1418550372972965  0.1519985325163013  0.1379013117357687
  0.8365850472467742  0.8548069943290746  0.8507781746604944
  0.3535235613612338  0.3498658086968046  0.3593335882829407
  0.9662992082395021  0.2434806923450490  0.5273068617999669
  0.4530189824675539  0.0409341522782420  0.7505000261784731
  0.5434422901265415  0.9638316230860262  0.2458750309536957
  0.7393589073826672  0.4637995301876706  0.0545742991919827
  0.2519643713788096  0.5326358661345652  0.9591460305409314
  0.0268748784062014  0.7513176079963961  0.4496267097533598
  0.4122563292558467  0.5850432465339156  0.7771776977327641
  0.9298295388383666  0.3143789221987464  0.0331838318406497
  0.7812723062039891  0.3708442200256056  0.6167108498856915
  0.0081426568459630  0.9511476841222536  0.3208481303774429
  0.5979645492015725  0.7695964887302751  0.3940743981355216
  0.3155311907030600  0.0146765451674804  0.9498658602025543
  0.6849470363041938  0.9713421222497330  0.0557678297644166
  0.2314266665594140  0.6240282200769728  0.3778891854148929
  0.0753827710731192  0.6911254555578876  0.9334824536679872
  0.3748907429768235  0.2380994886864481  0.6221530791232759
  0.9902929991676953  0.0383259805516691  0.6478411827769570
  0.5986255591324779  0.3965290461688881  0.2467715386109148
  0.9800373885794946  0.2815666320390801  0.3379159882750724
  0.4864482077135452  0.8965882195790678  0.6921866460172665
  0.3533358136226850  0.9845933428575224  0.2669196186387452
  0.6809647916877292  0.5072586763979274  0.9053898235113518
  0.2630574833014083  0.3559953754730812  0.9700827791908722
  0.8978242995259430  0.6928493428078879  0.4600672365291077
  0.1229232620576800  0.2762887348574150  0.5081125665771553
  0.6357048304635269  0.0212413381905146  0.7372910875401006
  0.5226635275741576  0.1096058812864507  0.2920263940554037
  0.7386720214225966  0.6373928463384452  0.0408279006031683
  0.2773106229360081  0.5076983315943351  0.1208114325334873
  0.0013283227523810  0.7227348622633423  0.6419420833118147
 
             NaN             NaN             NaN
             NaN             NaN             NaN
             NaN             NaN             NaN
             NaN             NaN             NaN
             NaN             NaN             NaN
             NaN             NaN             NaN
             NaN             NaN             NaN
             NaN             NaN             NaN
             NaN             NaN             NaN
             NaN             NaN             NaN
             NaN             NaN             NaN
             NaN             NaN             NaN
             NaN             NaN             NaN
             NaN             NaN             NaN
             NaN             NaN             NaN
             NaN             NaN             NaN
             NaN             NaN             NaN
             NaN             NaN             NaN
             NaN             NaN             NaN
             NaN             NaN             NaN
             NaN             NaN             NaN
             NaN             NaN             NaN
             NaN             NaN             NaN
             NaN             NaN             NaN
             NaN             NaN             NaN
             NaN             NaN             NaN
             NaN             NaN             NaN
             NaN             NaN             NaN
             NaN             NaN             NaN
             NaN             NaN             NaN
             NaN             NaN             NaN
             NaN             NaN             NaN
             NaN             NaN             NaN
             NaN             NaN             NaN
             NaN             NaN             NaN
