Fe4 P4 O16                              
   1.00000000000000     
     9.8311510149447585   -0.0000000012137659    0.0000001663852411
    -0.0000000009459164    5.7874369326494213   -0.0000000088289568
     0.0000000840978738   -0.0000000062346914    4.7903148617883566
   Fe   P    O 
     4     4    16
Direct
  0.7740216112888092  0.2500000001260858  0.5470526412738153
  0.2740216134592757  0.2499999994610675  0.9529472407148916
  0.2259794912851518  0.7499999999231406  0.4529514606419838
  0.7259794890812756  0.7500000001542659  0.0470486537907320
  0.5932694590537153  0.2500000004454179  0.1001934773092614
  0.0932694691888045  0.2499999992881996  0.3998064961448335
  0.4067298765405809  0.7499999991506883  0.8998131168694599
  0.9067298685739758  0.7499999998963318  0.6001869111100575
  0.6198543919708470  0.2500000005069438  0.7900925407402823
  0.1198543874160620  0.2500000000992202  0.7099074464273158
  0.3801494452505665  0.7500000002629506  0.2099150946953046
  0.8801494489317747  0.7499999999146354  0.2900849187796410
  0.9424670707721958  0.2500000014410659  0.3411579719760454
  0.4424670657500869  0.2499999987155164  0.1588420179240657
  0.0575303284062514  0.7499999990963104  0.6588477365151419
  0.5575303347806226  0.7500000018563640  0.8411522761902148
  0.6672568023774446  0.0446944681273749  0.2479064323898399
  0.1672568085065151  0.4553055421345817  0.2520935601255587
  0.3327423642367648  0.5446910809774224  0.7521063501817764
  0.8327423568393328  0.9553089276192352  0.7478936559566023
  0.3327423597049304  0.9553089149704519  0.7521063531346854
  0.8327423536860081  0.5446910748847600  0.7478936538161918
  0.6672567985016542  0.4553055362686678  0.2479064341482839
  0.1672568043973612  0.0446944546793162  0.2520935591440150
 
  0.00000000E+00  0.00000000E+00  0.00000000E+00
  0.00000000E+00  0.00000000E+00  0.00000000E+00
  0.00000000E+00  0.00000000E+00  0.00000000E+00
  0.00000000E+00  0.00000000E+00  0.00000000E+00
  0.00000000E+00  0.00000000E+00  0.00000000E+00
  0.00000000E+00  0.00000000E+00  0.00000000E+00
  0.00000000E+00  0.00000000E+00  0.00000000E+00
  0.00000000E+00  0.00000000E+00  0.00000000E+00
  0.00000000E+00  0.00000000E+00  0.00000000E+00
  0.00000000E+00  0.00000000E+00  0.00000000E+00
  0.00000000E+00  0.00000000E+00  0.00000000E+00
  0.00000000E+00  0.00000000E+00  0.00000000E+00
  0.00000000E+00  0.00000000E+00  0.00000000E+00
  0.00000000E+00  0.00000000E+00  0.00000000E+00
  0.00000000E+00  0.00000000E+00  0.00000000E+00
  0.00000000E+00  0.00000000E+00  0.00000000E+00
  0.00000000E+00  0.00000000E+00  0.00000000E+00
  0.00000000E+00  0.00000000E+00  0.00000000E+00
  0.00000000E+00  0.00000000E+00  0.00000000E+00
  0.00000000E+00  0.00000000E+00  0.00000000E+00
  0.00000000E+00  0.00000000E+00  0.00000000E+00
  0.00000000E+00  0.00000000E+00  0.00000000E+00
  0.00000000E+00  0.00000000E+00  0.00000000E+00
  0.00000000E+00  0.00000000E+00  0.00000000E+00
