Ca2 Fe4 S6 O24                          
   1.00000000000000     
     7.6296830000000000    0.0147570000000000    4.4063879999999997
     2.5407899999999999    7.0999900000000000    4.3868760000000000
     0.0568310000000000    0.0020880000000000    8.7990910000000007
   Ca   Fe   S    O 
     2     4     6    24
Direct
  0.3585953055587812  0.6707943539374116  0.5211419722478067
  0.9763579881221640  0.0349973005792215  0.9821982154156391
  0.6548928368030599  0.6245899545124641  0.6689892365272927
  0.1546082221575504  0.1451834511227924  0.1458835908267347
  0.8342018749233668  0.8594102189764657  0.8413255104299224
  0.3517971949415585  0.3545375887155450  0.3512448043835049
  0.9531060877059971  0.2515772014539341  0.5448093623476743
  0.4475013950882132  0.0383818042864851  0.7566317042148116
  0.5480703575208660  0.9606904303629692  0.2438194176360131
  0.7505819365057628  0.4450661794633838  0.0456404918597950
  0.2405317580512753  0.5565627433012194  0.9615432829959675
  0.0379420668776444  0.7532271180608867  0.4386771763639166
  0.4152198330066930  0.5482714956321184  0.7941251037576794
  0.8938483798795268  0.2639135204562202  0.1082854644599024
  0.7839771062460492  0.4186084381554845  0.5407766214417628
  0.0644275283828660  0.9015921041390187  0.2544858401948240
  0.5507283644348755  0.8253724585017541  0.4329400659939479
  0.2553864835722229  0.0913093651554498  0.8949899026011832
  0.7319760072213034  0.9027651074952899  0.1044890640481715
  0.2149505028063292  0.5897017952826524  0.4329538619717829
  0.1024308520402249  0.7449230810263159  0.9004488680827164
  0.4509777918906861  0.1806696949306128  0.5717617443114826
  0.9081262832126878  0.0983353147330674  0.7278351496828296
  0.5772527283397465  0.4701916390334084  0.2034009453827687
  0.0142931617466544  0.1854262861887133  0.3942731648485039
  0.4881360031422148  0.8517898795126884  0.7609212984617447
  0.3995889059791004  0.9451242433339573  0.2222128375907646
  0.7293268938495344  0.4244739058446539  0.9007568095675759
  0.1808444719536001  0.4081324665895037  0.0031567349572795
  0.8840772310262823  0.7027440208847235  0.4854121657058866
  0.1025112111622704  0.2863675023045202  0.5388212487495310
  0.5786639640117386  0.0348035281511092  0.8142421876313366
  0.5094689496076292  0.1502313309275930  0.2257930439826307
  0.8164960619121159  0.6022987244594641  0.9655840451667613
  0.2689203015013837  0.5433974321142924  0.1168949746790108
  0.0174051405350613  0.8153817113014387  0.5787898552715625
 
             NaN             NaN             NaN
             NaN             NaN             NaN
             NaN             NaN             NaN
             NaN             NaN             NaN
             NaN             NaN             NaN
             NaN             NaN             NaN
             NaN             NaN             NaN
             NaN             NaN             NaN
             NaN             NaN             NaN
             NaN             NaN             NaN
             NaN             NaN             NaN
             NaN             NaN             NaN
             NaN             NaN             NaN
             NaN             NaN             NaN
             NaN             NaN             NaN
             NaN             NaN             NaN
             NaN             NaN             NaN
             NaN             NaN             NaN
             NaN             NaN             NaN
             NaN             NaN             NaN
             NaN             NaN             NaN
             NaN             NaN             NaN
             NaN             NaN             NaN
             NaN             NaN             NaN
             NaN             NaN             NaN
             NaN             NaN             NaN
             NaN             NaN             NaN
             NaN             NaN             NaN
             NaN             NaN             NaN
             NaN             NaN             NaN
             NaN             NaN             NaN
             NaN             NaN             NaN
             NaN             NaN             NaN
             NaN             NaN             NaN
             NaN             NaN             NaN
             NaN             NaN             NaN
