Ca2 Fe4 S6 O24                          
   1.00000000000000     
     7.6296830000000000    0.0147570000000000    4.4063879999999997
     2.5407899999999999    7.0999900000000000    4.3868760000000000
     0.0568310000000000    0.0020880000000000    8.7990910000000007
   Ca   Fe   S    O 
     2     4     6    24
Direct
  0.3548915238798609  0.6691734868740835  0.5252471848290493
  0.9785993079660797  0.0291862890588050 -0.0181517692147440
  0.6534666128165855  0.6300060738923482  0.6680858096503982
  0.1482903172269425  0.1472607974047304  0.1465713761826233
  0.8369996472875797  0.8568563219653780  0.8395526147623096
  0.3538155197496188  0.3540063144711812  0.3517013002771371
  0.9533311449982685  0.2504334952683036  0.5442669880699227
  0.4428535592842041  0.0459660716474261  0.7552482912529501
  0.5507723993064261  0.9574802147669148  0.2453234560311625
  0.7493254553959285  0.4465885096729871  0.0460870503719810
  0.2437528438565708  0.5535046739476503  0.9621025305474261
  0.0382153489436870  0.7530815271840630  0.4374982214003248
  0.4172535059543454  0.5468797692788143  0.7941089334981988
  0.8917698733064440  0.2616172747697519  0.1042879192314603
  0.7838102322241554  0.4167298114502420  0.5484847036807065
  0.0628942823399301  0.9017898835193090  0.2537995568268421
  0.5642879546700931  0.8051341749391627  0.4252039014325755
  0.2532771323094434  0.0893210113828152  0.8994249307263302
  0.7290591608028903  0.9103732272798319  0.0956092952278822
  0.2159218173890383  0.5907191763469476  0.4303338177201942
  0.1043899904172145  0.7411337633985633  0.9014215535076638
  0.4431714909733667  0.2045072824620594  0.5797052137215782
  0.9130933939610311  0.0936654524566241  0.7261577893041158
  0.5781403367233529  0.4718399120742990  0.2056400636409424
  1.0046860878829400  0.1896594170013563  0.3931883699951638
  0.4785217235027472  0.8715812170966641  0.7367807291600336
  0.3942380283700597  0.9552533403816267  0.2252170680945308
  0.7211285815768476  0.4357307936841271  0.9007601288582344
  0.1856020165006423  0.4038042430596430  1.0047306536171550
  0.8860048198215427  0.6994880555617048  0.4850195184892398
  0.1070562511818569  0.2816436134251424  0.5334119769283255
  0.5784175060097835  1.0229129925177494  0.8200465626027184
  0.5191145529695900  0.1368824565139928  0.2456076058887620
  0.8212559266326790  0.5992250057967586 -0.0305463924538542
  0.2731483952689581  0.5414793586548734  0.1162308070943017
  0.0165155010071274  0.8161704510412611  0.5771546867765258
 
             NaN             NaN             NaN
             NaN             NaN             NaN
             NaN             NaN             NaN
             NaN             NaN             NaN
             NaN             NaN             NaN
             NaN             NaN             NaN
             NaN             NaN             NaN
             NaN             NaN             NaN
             NaN             NaN             NaN
             NaN             NaN             NaN
             NaN             NaN             NaN
             NaN             NaN             NaN
             NaN             NaN             NaN
             NaN             NaN             NaN
             NaN             NaN             NaN
             NaN             NaN             NaN
             NaN             NaN             NaN
             NaN             NaN             NaN
             NaN             NaN             NaN
             NaN             NaN             NaN
             NaN             NaN             NaN
             NaN             NaN             NaN
             NaN             NaN             NaN
             NaN             NaN             NaN
             NaN             NaN             NaN
             NaN             NaN             NaN
             NaN             NaN             NaN
             NaN             NaN             NaN
             NaN             NaN             NaN
             NaN             NaN             NaN
             NaN             NaN             NaN
             NaN             NaN             NaN
             NaN             NaN             NaN
             NaN             NaN             NaN
             NaN             NaN             NaN
             NaN             NaN             NaN
