Fe12 S12                                
   1.00000000000000     
     6.3407454360841253    0.0009311534504127    0.0000618267176619
    -3.1695367165267485    5.4916120388451963    0.0003006584347427
     0.0009769338184964    0.0026979697389469   11.7236846423754884
   Fe   S 
    12    12
Direct
  0.6663093776935511  0.6672224775723450  0.8743985921563819
  0.3331566437882927  0.9999279698767864  0.8751032609244547
  0.0002142757100003  0.3333859596557147  0.8752789036053628
  0.6667379722202824  0.6667816520995160  0.6248514516843571
  0.3331406791382250  0.9993647160654291  0.6252215613635173
  0.0001693520980552  0.3332634343764624  0.6250678008465087
  0.6671987679190465  0.6662410810891402  0.3743281473212150
  0.9999306817783662  0.3332030181076462  0.3751839362785674
  0.3333599335190627  0.0001630042419052  0.3752270509828080
  0.6667367043155750  0.6666933988776691  0.1248430896651342
  0.9994931473627560  0.3331312238271096  0.1252427004807046
  0.3333382740291668  0.0002240629009691  0.1250225069831714
  0.9999155245760463  0.0000086720158450  0.0000101297714039
  0.9999897713684334  0.9999325497625193  0.5000079211667483
  0.6666402712337884  0.3334808787881443  0.9998586571387449
  0.6666781936508812  0.3333458626290664  0.5001976001917754
  0.3334643201518190  0.6666191160545836  0.4998515842635172
  0.3333636588853111  0.6667578240170187  0.0001892668256644
  0.3332808064335282  0.3331847075583809  0.7499983764457951
  0.6669359792031244  0.0003921971124541  0.7500252795618891
  0.9998497766688601  0.6667037255894854  0.7500464198659955
  0.3330905771623236  0.3332229762780017  0.2500043600177690
  0.0003472244364318  0.6669151759221705  0.2500021924579414
  0.6666580866570584  0.9998343155816229  0.2500392100005584
 
  0.00000000E+00  0.00000000E+00  0.00000000E+00
  0.00000000E+00  0.00000000E+00  0.00000000E+00
  0.00000000E+00  0.00000000E+00  0.00000000E+00
  0.00000000E+00  0.00000000E+00  0.00000000E+00
  0.00000000E+00  0.00000000E+00  0.00000000E+00
  0.00000000E+00  0.00000000E+00  0.00000000E+00
  0.00000000E+00  0.00000000E+00  0.00000000E+00
  0.00000000E+00  0.00000000E+00  0.00000000E+00
  0.00000000E+00  0.00000000E+00  0.00000000E+00
  0.00000000E+00  0.00000000E+00  0.00000000E+00
  0.00000000E+00  0.00000000E+00  0.00000000E+00
  0.00000000E+00  0.00000000E+00  0.00000000E+00
  0.00000000E+00  0.00000000E+00  0.00000000E+00
  0.00000000E+00  0.00000000E+00  0.00000000E+00
  0.00000000E+00  0.00000000E+00  0.00000000E+00
  0.00000000E+00  0.00000000E+00  0.00000000E+00
  0.00000000E+00  0.00000000E+00  0.00000000E+00
  0.00000000E+00  0.00000000E+00  0.00000000E+00
  0.00000000E+00  0.00000000E+00  0.00000000E+00
  0.00000000E+00  0.00000000E+00  0.00000000E+00
  0.00000000E+00  0.00000000E+00  0.00000000E+00
  0.00000000E+00  0.00000000E+00  0.00000000E+00
  0.00000000E+00  0.00000000E+00  0.00000000E+00
  0.00000000E+00  0.00000000E+00  0.00000000E+00
