Ca2 Ni4 S6 O24                          
   1.00000000000000     
     7.5229752032718613    0.0965362712141412    4.4158124019859972
     2.5774028350502336    7.0688720541956345    4.4145565999150662
     0.1392654810635827    0.0993874629408855    8.7231059818858032
   Ca   Ni   S    O 
     2     4     6    24
Direct
  0.4975263244102153  0.4975485085316353  0.4975678716154853
  0.9975617000234381  0.9975799402297262  0.9975294599359155
  0.6452132794854631  0.6454908903429314  0.6453697227347807
  0.1455771604798492  0.1451098408132516  0.1454410735760389
  0.8496888368170413  0.8496266133336269  0.8496380655886808
  0.3496078015732200  0.3497111841084035  0.3496348437173096
  0.9523868092172335  0.2474359383016707  0.5429287731192062
  0.4523013116348403  0.0429818100426035  0.7474082652112496
  0.5429221512740929  0.9522293548846128  0.2474834032734994
  0.7474523899200831  0.4523958863944259  0.0428897606625574
  0.2475290243594578  0.5428618066307261  0.9524031816388570
  0.0428685234901813  0.7475436278265307  0.4523107101256368
  0.4089517821658938  0.5642738604801342  0.7687558247831846
  0.9091017895284360  0.2689601215310209  0.0639457543587025
  0.7687704891317262  0.4088803730948897  0.5642879690164917
  0.0639907100790482  0.9091429809573253  0.2688175042084663
  0.5643681849594815  0.7686380817916321  0.4089386583610088
  0.2688579672144117  0.0640889878069280  0.9090705927261403
  0.7262895303640911  0.9312638500138761  0.0857485170064681
  0.2263437893805561  0.5859819866879711  0.4309887201915847
  0.0857491659145687  0.7261965422445179  0.9313896561237112
  0.4309471766542154  0.2264582913654924  0.5858946327130045
  0.9313906410873986  0.0857150379198632  0.7263179606163546
  0.5859127281446699  0.4310803109204615  0.2263919063424913
  0.9840552615905914  0.1984636071540181  0.3909333807801235
  0.4838077486650114  0.8910172716768865  0.6984729870186632
  0.3909634724380019  0.9835074546980109  0.1986834083571342
  0.6983809200138583  0.4841267945954150  0.8909546144363035
  0.1987441814170988  0.3907176163432381  0.9840771493977742
  0.8908311563017118  0.6985927557331002  0.4840167563238212
  0.1041775876777825  0.2966365954526649  0.5114638487379208
  0.6042831924148792  0.0116016068231651  0.7962355477953496
  0.5112370201768983  0.1041744313568975  0.2965718775032111
  0.7963541427426106  0.6043395216695793  0.0115385615935673
  0.2966734324384201  0.5115175132335169  0.1041471858429436
  0.0115826168135434  0.7965090050092845  0.6041518545663674
 
  0.00000000E+00  0.00000000E+00  0.00000000E+00
  0.00000000E+00  0.00000000E+00  0.00000000E+00
  0.00000000E+00  0.00000000E+00  0.00000000E+00
  0.00000000E+00  0.00000000E+00  0.00000000E+00
  0.00000000E+00  0.00000000E+00  0.00000000E+00
  0.00000000E+00  0.00000000E+00  0.00000000E+00
  0.00000000E+00  0.00000000E+00  0.00000000E+00
  0.00000000E+00  0.00000000E+00  0.00000000E+00
  0.00000000E+00  0.00000000E+00  0.00000000E+00
  0.00000000E+00  0.00000000E+00  0.00000000E+00
  0.00000000E+00  0.00000000E+00  0.00000000E+00
  0.00000000E+00  0.00000000E+00  0.00000000E+00
  0.00000000E+00  0.00000000E+00  0.00000000E+00
  0.00000000E+00  0.00000000E+00  0.00000000E+00
  0.00000000E+00  0.00000000E+00  0.00000000E+00
  0.00000000E+00  0.00000000E+00  0.00000000E+00
  0.00000000E+00  0.00000000E+00  0.00000000E+00
  0.00000000E+00  0.00000000E+00  0.00000000E+00
  0.00000000E+00  0.00000000E+00  0.00000000E+00
  0.00000000E+00  0.00000000E+00  0.00000000E+00
  0.00000000E+00  0.00000000E+00  0.00000000E+00
  0.00000000E+00  0.00000000E+00  0.00000000E+00
  0.00000000E+00  0.00000000E+00  0.00000000E+00
  0.00000000E+00  0.00000000E+00  0.00000000E+00
  0.00000000E+00  0.00000000E+00  0.00000000E+00
  0.00000000E+00  0.00000000E+00  0.00000000E+00
  0.00000000E+00  0.00000000E+00  0.00000000E+00
  0.00000000E+00  0.00000000E+00  0.00000000E+00
  0.00000000E+00  0.00000000E+00  0.00000000E+00
  0.00000000E+00  0.00000000E+00  0.00000000E+00
  0.00000000E+00  0.00000000E+00  0.00000000E+00
  0.00000000E+00  0.00000000E+00  0.00000000E+00
  0.00000000E+00  0.00000000E+00  0.00000000E+00
  0.00000000E+00  0.00000000E+00  0.00000000E+00
  0.00000000E+00  0.00000000E+00  0.00000000E+00
  0.00000000E+00  0.00000000E+00  0.00000000E+00
