Ca1 Cr4 S6 O24                          
   1.00000000000000     
     7.8045218682917152    0.3163693384298266    4.3109312501820130
     2.8290983891770267    7.2692987702264640    4.2721334647845932
     0.3686809597206558    0.2462093866534928    8.6736433740534356
   Ca   Cr   S    O 
     1     4     6    24
Direct
  0.3843656318882509  0.7410728920214424  0.1258145053486075
  0.6480841101742527  0.6346539467464538  0.6462211852814193
  0.1480567900640608  0.1564961419498090  0.1474813800906247
  0.8513298505629550  0.8602699092053854  0.8493068548531042
  0.3370367539138002  0.3426151701616291  0.3509007339198078
  0.9358236032207898  0.2477302486465760  0.5525204186600732
  0.4711171646088843  0.0280101937235671  0.7459472090112129
  0.5358932724710286  0.9554348281268403  0.2469832325145305
  0.7625379563364518  0.4545002066161956  0.0220708384073944
  0.2502683155002856  0.5639924668466634  0.9455258428468127
  0.0346953772880738  0.7364064521683105  0.4654623163807088
  0.4152397172887632  0.5809686338677409  0.7726921724061810
  0.9382885356175166  0.3049865285958475  0.0428360669618471
  0.7685010628935558  0.4271785383070537  0.5466904032996354
  0.0668165165804240  0.8908282357619441  0.2849760547936029
  0.5421525404768488  0.8303166577083516  0.4373804708435998
  0.2976997890219053  0.0698287524537875  0.9085731247442723
  0.7173941468040610  0.8929877913633248  0.1041959063748621
  0.2145552519296530  0.5680334700430976  0.4434371572986748
  0.0821551454034051  0.7332610351731503  0.9168245554734611
  0.4507444974419954  0.1584183659003813  0.5644632547341359
  0.8936425875900582  0.0994966704033118  0.7367936752861368
  0.5990533507847644  0.4277118550340759  0.1951680033119061
  0.9760040460208472  0.1914716161211416  0.3993384916633005
  0.5070654941806154  0.8318545748471067  0.7737259596605739
  0.3861276013485551  0.9477861077627949  0.2222713229814630
  0.7408166890838288  0.4595421425779662  0.8622528854775453
  0.2263614507095042  0.3944017177229142  0.9961429961243908
  0.8771356430790078  0.7022675441885795  0.4969325467961241
  0.0949874804261697  0.2745674789539478  0.5278698645092419
  0.6266170579554426  0.0245036709252702  0.7652837757599116
  0.4859716901420796  0.1501382001521705  0.2212444973723606
  0.7528392142719724  0.6423850208313695  0.9865630301580595
  0.2809624928273138  0.5566776876039370  0.1038972079220386
  0.0061591720929002  0.7778052474878621  0.6228120587324213
 
  0.00000000E+00  0.00000000E+00  0.00000000E+00
  0.00000000E+00  0.00000000E+00  0.00000000E+00
  0.00000000E+00  0.00000000E+00  0.00000000E+00
  0.00000000E+00  0.00000000E+00  0.00000000E+00
  0.00000000E+00  0.00000000E+00  0.00000000E+00
  0.00000000E+00  0.00000000E+00  0.00000000E+00
  0.00000000E+00  0.00000000E+00  0.00000000E+00
  0.00000000E+00  0.00000000E+00  0.00000000E+00
  0.00000000E+00  0.00000000E+00  0.00000000E+00
  0.00000000E+00  0.00000000E+00  0.00000000E+00
  0.00000000E+00  0.00000000E+00  0.00000000E+00
  0.00000000E+00  0.00000000E+00  0.00000000E+00
  0.00000000E+00  0.00000000E+00  0.00000000E+00
  0.00000000E+00  0.00000000E+00  0.00000000E+00
  0.00000000E+00  0.00000000E+00  0.00000000E+00
  0.00000000E+00  0.00000000E+00  0.00000000E+00
  0.00000000E+00  0.00000000E+00  0.00000000E+00
  0.00000000E+00  0.00000000E+00  0.00000000E+00
  0.00000000E+00  0.00000000E+00  0.00000000E+00
  0.00000000E+00  0.00000000E+00  0.00000000E+00
  0.00000000E+00  0.00000000E+00  0.00000000E+00
  0.00000000E+00  0.00000000E+00  0.00000000E+00
  0.00000000E+00  0.00000000E+00  0.00000000E+00
  0.00000000E+00  0.00000000E+00  0.00000000E+00
  0.00000000E+00  0.00000000E+00  0.00000000E+00
  0.00000000E+00  0.00000000E+00  0.00000000E+00
  0.00000000E+00  0.00000000E+00  0.00000000E+00
  0.00000000E+00  0.00000000E+00  0.00000000E+00
  0.00000000E+00  0.00000000E+00  0.00000000E+00
  0.00000000E+00  0.00000000E+00  0.00000000E+00
  0.00000000E+00  0.00000000E+00  0.00000000E+00
  0.00000000E+00  0.00000000E+00  0.00000000E+00
  0.00000000E+00  0.00000000E+00  0.00000000E+00
  0.00000000E+00  0.00000000E+00  0.00000000E+00
  0.00000000E+00  0.00000000E+00  0.00000000E+00
