Ca2 Co4 S6 O24                          
   1.00000000000000     
     7.6858050000000002    0.0571960000000000    4.4366610000000000
     2.7324880000000000    6.9814280000000002    4.5764100000000001
     0.2944700000000000   -0.0311820000000000    8.8555290000000007
   Ca   Co   S    O 
     2     4     6    24
Direct
  0.2753458111938301  0.7788446999813351  0.5600560398013190
  0.9801427690518426  0.0164065257925258 -0.0046682238317515
  0.6546407095564263  0.6351849874169458  0.6579991943481525
  0.1408821151630420  0.1522218156934969  0.1397879460899403
  0.8285944651798234  0.8550187811976003  0.8501494162051505
  0.3610265650511106  0.3531943774688626  0.3550159355885532
  0.9738214115721832  0.2378473964625930  0.5359067577007692
  0.4360453810580927  0.0389849655314324  0.7525234591714166
  0.5568482776894492  0.9595640235446707  0.2442645883102521
  0.7457903314845669  0.4511054187433927  0.0477010370114555
  0.2539391677795299  0.5403245517055432  0.9590956434507086
  0.0316963480211261  0.7561698480006894  0.4421903543506427
  0.4271389190979989  0.5381663541563199  0.7863214994343025
  0.8823611352177134  0.2544851291092169  0.1109018137980427
  0.8240384688073504  0.4206923163151899  0.5403779889233463
  0.0938302846021581  0.8936531962673507  0.2507380767466850
  0.5692556120891356  0.7900145897479820  0.4185608927533318
  0.2399521240682454  0.1019844485547842  0.8891574797289037
  0.7321692945495930  0.9116635208385543  0.0866034702692961
  0.1951746398569709  0.5769015321234211  0.4688442353296014
  0.1081358701377895  0.7342839975558910  0.8949688656988212
  0.4616745445535741  0.1980458973558930  0.5752846505091487
  0.9257254204995979  0.0840637035542117  0.7245141454066948
  0.5644230242799099  0.4803363219425809  0.2008277118687487
  0.9944235724920268  0.1863134987174151  0.3926432771369692
  0.4504600867111751  0.8767388375195110  0.7283164144342825
  0.3857210326549740 -0.0092612178201038  0.2260168794947503
  0.7292684641838395  0.4570222732363309  0.8869238554497209
  0.1967688283589903  0.3915273018917973  1.0034102043374236
  0.8697452392300353  0.7384588621649831  0.4608497334931840
  0.1581708715659305  0.2265073495403354  0.5085910465208668
  0.5699445264295433  0.9775488357977736  0.8382974858059999
  0.5481614783664736  0.1245473462905478  0.2533459951526500
  0.8252310738120487  0.5901193896267536  0.9894836546062686
  0.2753503259931042  0.5312743051819668  0.1149035702410653
 -0.0189708833850188  0.8310394398460522  0.5852002975845552
 
             NaN             NaN             NaN
             NaN             NaN             NaN
             NaN             NaN             NaN
             NaN             NaN             NaN
             NaN             NaN             NaN
             NaN             NaN             NaN
             NaN             NaN             NaN
             NaN             NaN             NaN
             NaN             NaN             NaN
             NaN             NaN             NaN
             NaN             NaN             NaN
             NaN             NaN             NaN
             NaN             NaN             NaN
             NaN             NaN             NaN
             NaN             NaN             NaN
             NaN             NaN             NaN
             NaN             NaN             NaN
             NaN             NaN             NaN
             NaN             NaN             NaN
             NaN             NaN             NaN
             NaN             NaN             NaN
             NaN             NaN             NaN
             NaN             NaN             NaN
             NaN             NaN             NaN
             NaN             NaN             NaN
             NaN             NaN             NaN
             NaN             NaN             NaN
             NaN             NaN             NaN
             NaN             NaN             NaN
             NaN             NaN             NaN
             NaN             NaN             NaN
             NaN             NaN             NaN
             NaN             NaN             NaN
             NaN             NaN             NaN
             NaN             NaN             NaN
             NaN             NaN             NaN
