Ca1 V4 S6 O24
1.0
7.429474 -0.063585 4.953237
2.395871 6.656002 5.409263
0.030585 -0.595380 8.921789
Ca V S O
1 4 6 24
direct
0.378280 0.680422 0.558800 Ca
0.650376 0.644477 0.648123 V
0.140900 0.145691 0.144206 V
0.846385 0.846232 0.848307 V
0.355579 0.351776 0.345944 V
0.955921 0.249608 0.529420 S
0.452294 0.040245 0.747001 S
0.538718 0.961813 0.242827 S
0.746816 0.453467 0.043121 S
0.246528 0.535735 0.956043 S
0.044278 0.745707 0.461506 S
0.395010 0.590998 0.767186 O
0.918155 0.294113 0.055637 O
0.788393 0.404640 0.581026 O
0.060476 0.916238 0.301996 O
0.591650 0.781896 0.397530 O
0.298929 0.055245 0.922021 O
0.682527 0.948369 0.062099 O
0.210024 0.584360 0.425024 O
0.065705 0.692807 0.950941 O
0.412295 0.215715 0.590529 O
0.950552 0.067748 0.684708 O
0.590613 0.421219 0.221864 O
0.961169 0.254203 0.360844 O
0.468964 0.885106 0.717955 O
0.350617 0.983186 0.266866 O
0.708056 0.478918 0.891477 O
0.245289 0.363009 0.977242 O
0.877799 0.729244 0.500262 O
0.124836 0.264490 0.494688 O
0.626736 0.010794 0.749021 O
0.523387 0.118459 0.263062 O
0.762579 0.621077 0.011991 O
0.284437 0.509146 0.107674 O
0.036483 0.749811 0.628151 O
