Ca4 Ni4 P6 O24                          
   1.00000000000000     
     2.5432009999999998    7.2959199999999997    4.3950659999999999
    -0.0626880000000000    0.0877490000000000    8.6641019999999997
     7.5700900000000004    0.1066450000000000    4.2366089999999996
   Ca   Ni   P    O 
     4     4     6    24
Direct
  0.5282973725441901  0.4896276779072242  0.5027501239417151
  0.9694598271556752  0.9896529026970269  0.0100952782967989
  0.3823988018459049  0.7429918554212754  0.0983653597717100
  0.1149532735996799  0.3961458694158843  0.7606177708112466
  0.6424236199824778  0.6539055011602320  0.6345613114943928
  0.1557529707231883  0.1348652326643031  0.1520735105582707
  0.8500377744174759  0.8569016509957794  0.8497017655406556
  0.3415792878406735  0.3466542509042079  0.3632386214546046
  0.2494851237735117  0.5443576546940391  0.9541025548471513
  0.0424869540045618  0.7536350488826621  0.4529899630230554
  0.9600933758189494  0.2472841260936464  0.5673955651994316
  0.4466049397513551  0.0396792572663851  0.7441002779837009
  0.5351717107559419  0.9369210809670032  0.2483761413280758
  0.7480125700824513  0.4689025677368099  0.0263947385271687
  0.5880002072304068  0.7535989886364242  0.3941903923404990
  0.2503643191031112  0.0599491981977564  0.9016924422086200
  0.4059076367829376  0.5692149201135167  0.7623356663610661
  0.8806415813054076  0.2742477098381312  0.0200778522724560
  0.7748098842806559  0.4048256082103096  0.5717076425563332
  0.0664137078247257  0.8937553397913032  0.2554055366331071
  0.9284406248703103  0.0887411867841426  0.7386079261745048
  0.6079449242242706  0.4703356332057227  0.2241410422922485
  0.7121427572713462  0.9450293108287906  0.0793607765476776
  0.2399077220859156  0.5951531496025969  0.4399083207427513
  0.0846317832349617  0.7264520462040508  0.9400360670048432
  0.4345834428294184  0.2392005295109928  0.6106671574791538
  0.2113959303539077  0.3795116931133971  0.9770295675437523
  0.9014243770055242  0.6762011475420924  0.5162664937758722
  0.0323015102432005  0.2014723650767489  0.3817484218383512
  0.4719494155646478  0.9095563640681094  0.6566267349405285
  0.3951711099253979  0.9270444444973879  0.2051440254678042
  0.6314314765064458  0.5563895055201000  0.9040934094254017
  0.2951856959423661  0.5203139541501481  0.1088737377767750
  0.0131886658118868  0.8326591908054375  0.5934774670506159
  0.0956702181769778  0.3008114616926690  0.5690987309250415
  0.5874572481225837  0.9575308604742485  0.8325607518673108
  0.4641971116021642  0.1082736336683163  0.3009707361280662
  0.8649283675303689  0.5829305142310997  0.9559802404617300
 
             NaN             NaN             NaN
             NaN             NaN             NaN
             NaN             NaN             NaN
             NaN             NaN             NaN
             NaN             NaN             NaN
             NaN             NaN             NaN
             NaN             NaN             NaN
             NaN             NaN             NaN
             NaN             NaN             NaN
             NaN             NaN             NaN
             NaN             NaN             NaN
             NaN             NaN             NaN
             NaN             NaN             NaN
             NaN             NaN             NaN
             NaN             NaN             NaN
             NaN             NaN             NaN
             NaN             NaN             NaN
             NaN             NaN             NaN
             NaN             NaN             NaN
             NaN             NaN             NaN
             NaN             NaN             NaN
             NaN             NaN             NaN
             NaN             NaN             NaN
             NaN             NaN             NaN
             NaN             NaN             NaN
             NaN             NaN             NaN
             NaN             NaN             NaN
             NaN             NaN             NaN
             NaN             NaN             NaN
             NaN             NaN             NaN
             NaN             NaN             NaN
             NaN             NaN             NaN
             NaN             NaN             NaN
             NaN             NaN             NaN
             NaN             NaN             NaN
             NaN             NaN             NaN
             NaN             NaN             NaN
             NaN             NaN             NaN
