Ca2 P6                                  
   1.00000000000000     
     5.4995903660811152    0.0089147202122630    1.0114406386993613
     1.1495704081743159    5.1719695284312683    1.9211583244458506
    -0.0095651871102265   -0.0043150881130684    5.6701540787541651
   Ca   P 
     2     6
Direct
  0.6756562192096425  0.6399122931699139  0.6460169703978806
  0.3243425386651992  0.3600865756306391  0.3539846635408068
  0.9938727398974194  0.8042875215516787  0.9982122225623158
  0.0061266381016978  0.1957123068320783  0.0017865691451746
  0.8747144174420853  0.1764116894262386  0.3933621010914834
  0.1252870026511204  0.8235899831896987  0.6066368451077651
  0.6006316839721819  0.8013971811572063  0.0981351943245059
  0.3993687600606606  0.1986024490425464  0.9018654338300678
 
  0.00000000E+00  0.00000000E+00  0.00000000E+00
  0.00000000E+00  0.00000000E+00  0.00000000E+00
  0.00000000E+00  0.00000000E+00  0.00000000E+00
  0.00000000E+00  0.00000000E+00  0.00000000E+00
  0.00000000E+00  0.00000000E+00  0.00000000E+00
  0.00000000E+00  0.00000000E+00  0.00000000E+00
  0.00000000E+00  0.00000000E+00  0.00000000E+00
  0.00000000E+00  0.00000000E+00  0.00000000E+00
