Ca4 Mn24 Si4 O48                        
   1.00000000000000     
     9.4888723404502642    0.0017247765836155   -0.0014143001080682
     0.0017159062721625    9.4890012038114513   -0.0014343637382848
    -4.7466765118578005   -4.7467264423839248    9.4689528310217881
   Ca   Mn   Si   O 
     4    24     4    48
Direct
  0.1253319809043480  0.3746587690544318  0.2499868295467263
  0.6250245958002724  0.8749761116323236  0.2499962180259097
  0.8746587541065225  0.6253325324755460  0.7499861473857539
  0.3749722280147496  0.1250283903767168  0.7499958072461620
  0.4999939333502472  0.5000107964445570  0.5000012348626116
  0.4999914331613390  0.9999864880341818  0.4999935162322284
  0.0000341303642369  0.9999933063879008  0.0000029795741914
  0.5000392133338191  0.5000207395485652 -0.0000017223599302
  0.0000122272575020  0.0000146529451329  0.5000009768822005
  0.0000113256790034  0.4999903611224824  0.5000015689077056
  0.5000285810169175  0.0000191965209984  0.0000064785615075
  0.0000241715089134  0.5000166820522025  0.0000161537009267
  0.2213757249853399  0.7497496491176866  0.5001119803282776
  0.7786529793423049  0.2502506862151952  0.4998912550744228
  0.2497602820453857  0.7213775235315851  0.0001214615393529
  0.2499288967508284  0.2213047467702803  0.0000400767800720
  0.7502643649920189  0.2786540673091860 -0.0000944005961409
  0.7500748144281482  0.7786645316337462 -0.0000644387378544
  0.7213274792579835  0.7499285425604842  0.5000589450796483
  0.2786963212779841  0.2500696408695967  0.4999454952673782
  0.3624697413776014  0.6115786732842573  0.2499526062120966
  0.3880252128431367  0.1119786976763562  0.2499948557650733
  0.1115851554896598  0.8624597881192655  0.7499338398255632
  0.1377466420593928  0.3622599852166695  0.7500135533254066
  0.6375441008523782  0.3884179825017016  0.7500550550244586
  0.6119831069226693  0.8880141087150654  0.7499941943354366
  0.8884285949141432  0.1375340733915917  0.2500431656520170
  0.8622565822916916  0.6377395167581550  0.2500179444428768
  0.3747927195601142  0.6251178526028903  0.7500676093951378
  0.8748560201130861  0.1252047113803318  0.7499318332630515
  0.1251216255898952  0.8748160432688064  0.2500718850165468
  0.6251808373565073  0.3748523639510034  0.2499299013893388
  0.3154036718648589  0.6010667863624094  0.3969574242859910
  0.5818317608450172  0.1014816530278016  0.3968629690943044
  0.1010620147907661  0.8154205844094617  0.8969355856939079
  0.2955645396079840  0.3152133039766215  0.8968921050155703
  0.6846008478628917  0.3989302781130685  0.6030623367628808
  0.4181521561903687  0.8985159923503554  0.6031051912806018
  0.8989207158695748  0.1846042899430994  0.1030377866429170
  0.7044541196009234  0.6847634608604415  0.1031430193050924
  0.8152242300097424  0.7955888207442716  0.3969065981660581
  0.0818743871847652  0.2953640255095576  0.3968695355022230
  0.6014823388538056  0.0818156749216517  0.8968734643046933
  0.7953760548450469  0.5818920676472760  0.8968907229003181
  0.1847833590563968  0.2044621000627034  0.6031400725731558
  0.9181091063679783  0.7046038924141538  0.6030888154927694
  0.3985132942957811  0.9181456938501072  0.1031098483688129
  0.2046181065636685  0.4181407113812856  0.1031100924806422
  0.5230125709202420  0.8014405208612954  0.3866056962961161
  0.3635781389532384  0.3014744846887889  0.3866669521470787
  0.3014527289856230  0.0229999813178952  0.8865873443838426
  0.0847926600493920  0.5231453437535702  0.8865635495793128
  0.4769869526709661  0.1985607253806419  0.6133983078140591
  0.6363980395482456  0.6985106178929037  0.6133166079654254
  0.6985738720521802  0.9769779564799034  0.1134006243155367
  0.9152090750424589  0.4768880649837776  0.1134688846692953
  0.0231468479663592  0.5847992266390272  0.3865785365943739
  0.8637045070504390  0.0851750813571579  0.3866552267240466
  0.8014810691675278  0.8635746034261461  0.8866578632166240
  0.5851677628676623  0.3637035519231198  0.8866605212177797
  0.9768708989977741  0.4151899556481352  0.6134486576482298
  0.1362888631674739  0.9148328276103408  0.6133278085072958
  0.1985182443459335  0.1364126690575964  0.1133258752304727
  0.4148442249367818  0.6363055581516536  0.1133554511931224
  0.5630292792728454  0.5076159859156719  0.3488797084445679
  0.2862177312040295  0.0075998129674757  0.3490731280575306
  0.0076291337879615  0.0631107021434405  0.8489228641418525
  0.3410368781373201  0.5630554583566011  0.8490486431265751
  0.4369055505824204  0.4923745434531284  0.6510716872367250
  0.7137693521581479  0.9923940526469599  0.6509679512529909
  0.9923808247996659  0.9369809535556086  0.1511198572899680
  0.6589271530476362  0.4368500553870373  0.1509130188944594
  0.0630718911942560  0.8410405031014945  0.3490517693056670
  0.7863549181105531  0.3412551374329729  0.3490881879756838
  0.5076131874129465  0.7861863867861671  0.8490694059333015
  0.8412104589493009  0.2863776290761943  0.8490466323930863
  0.9368696143360368  0.1589220344266616  0.6509094347122175
  0.2136402301615017  0.6587886953592327  0.6509520066500296
  0.4924007085046200  0.2137506912041879  0.1509676416846653
  0.1587521508607574  0.7136756419720603  0.1509115805799691
 
  0.00000000E+00  0.00000000E+00  0.00000000E+00
  0.00000000E+00  0.00000000E+00  0.00000000E+00
  0.00000000E+00  0.00000000E+00  0.00000000E+00
  0.00000000E+00  0.00000000E+00  0.00000000E+00
  0.00000000E+00  0.00000000E+00  0.00000000E+00
  0.00000000E+00  0.00000000E+00  0.00000000E+00
  0.00000000E+00  0.00000000E+00  0.00000000E+00
  0.00000000E+00  0.00000000E+00  0.00000000E+00
  0.00000000E+00  0.00000000E+00  0.00000000E+00
  0.00000000E+00  0.00000000E+00  0.00000000E+00
  0.00000000E+00  0.00000000E+00  0.00000000E+00
  0.00000000E+00  0.00000000E+00  0.00000000E+00
  0.00000000E+00  0.00000000E+00  0.00000000E+00
  0.00000000E+00  0.00000000E+00  0.00000000E+00
  0.00000000E+00  0.00000000E+00  0.00000000E+00
  0.00000000E+00  0.00000000E+00  0.00000000E+00
  0.00000000E+00  0.00000000E+00  0.00000000E+00
  0.00000000E+00  0.00000000E+00  0.00000000E+00
  0.00000000E+00  0.00000000E+00  0.00000000E+00
  0.00000000E+00  0.00000000E+00  0.00000000E+00
  0.00000000E+00  0.00000000E+00  0.00000000E+00
  0.00000000E+00  0.00000000E+00  0.00000000E+00
  0.00000000E+00  0.00000000E+00  0.00000000E+00
  0.00000000E+00  0.00000000E+00  0.00000000E+00
  0.00000000E+00  0.00000000E+00  0.00000000E+00
  0.00000000E+00  0.00000000E+00  0.00000000E+00
  0.00000000E+00  0.00000000E+00  0.00000000E+00
  0.00000000E+00  0.00000000E+00  0.00000000E+00
  0.00000000E+00  0.00000000E+00  0.00000000E+00
  0.00000000E+00  0.00000000E+00  0.00000000E+00
  0.00000000E+00  0.00000000E+00  0.00000000E+00
  0.00000000E+00  0.00000000E+00  0.00000000E+00
  0.00000000E+00  0.00000000E+00  0.00000000E+00
  0.00000000E+00  0.00000000E+00  0.00000000E+00
  0.00000000E+00  0.00000000E+00  0.00000000E+00
  0.00000000E+00  0.00000000E+00  0.00000000E+00
  0.00000000E+00  0.00000000E+00  0.00000000E+00
  0.00000000E+00  0.00000000E+00  0.00000000E+00
  0.00000000E+00  0.00000000E+00  0.00000000E+00
  0.00000000E+00  0.00000000E+00  0.00000000E+00
  0.00000000E+00  0.00000000E+00  0.00000000E+00
  0.00000000E+00  0.00000000E+00  0.00000000E+00
  0.00000000E+00  0.00000000E+00  0.00000000E+00
  0.00000000E+00  0.00000000E+00  0.00000000E+00
  0.00000000E+00  0.00000000E+00  0.00000000E+00
  0.00000000E+00  0.00000000E+00  0.00000000E+00
  0.00000000E+00  0.00000000E+00  0.00000000E+00
  0.00000000E+00  0.00000000E+00  0.00000000E+00
  0.00000000E+00  0.00000000E+00  0.00000000E+00
  0.00000000E+00  0.00000000E+00  0.00000000E+00
  0.00000000E+00  0.00000000E+00  0.00000000E+00
  0.00000000E+00  0.00000000E+00  0.00000000E+00
  0.00000000E+00  0.00000000E+00  0.00000000E+00
  0.00000000E+00  0.00000000E+00  0.00000000E+00
  0.00000000E+00  0.00000000E+00  0.00000000E+00
  0.00000000E+00  0.00000000E+00  0.00000000E+00
  0.00000000E+00  0.00000000E+00  0.00000000E+00
  0.00000000E+00  0.00000000E+00  0.00000000E+00
  0.00000000E+00  0.00000000E+00  0.00000000E+00
  0.00000000E+00  0.00000000E+00  0.00000000E+00
  0.00000000E+00  0.00000000E+00  0.00000000E+00
  0.00000000E+00  0.00000000E+00  0.00000000E+00
  0.00000000E+00  0.00000000E+00  0.00000000E+00
  0.00000000E+00  0.00000000E+00  0.00000000E+00
  0.00000000E+00  0.00000000E+00  0.00000000E+00
  0.00000000E+00  0.00000000E+00  0.00000000E+00
  0.00000000E+00  0.00000000E+00  0.00000000E+00
  0.00000000E+00  0.00000000E+00  0.00000000E+00
  0.00000000E+00  0.00000000E+00  0.00000000E+00
  0.00000000E+00  0.00000000E+00  0.00000000E+00
  0.00000000E+00  0.00000000E+00  0.00000000E+00
  0.00000000E+00  0.00000000E+00  0.00000000E+00
  0.00000000E+00  0.00000000E+00  0.00000000E+00
  0.00000000E+00  0.00000000E+00  0.00000000E+00
  0.00000000E+00  0.00000000E+00  0.00000000E+00
  0.00000000E+00  0.00000000E+00  0.00000000E+00
  0.00000000E+00  0.00000000E+00  0.00000000E+00
  0.00000000E+00  0.00000000E+00  0.00000000E+00
  0.00000000E+00  0.00000000E+00  0.00000000E+00
  0.00000000E+00  0.00000000E+00  0.00000000E+00
