Ni20 P16                                
   1.00000000000000     
     6.6672179972440153    0.0001345614541419    0.0000037148504524
    -3.3334924503455499    5.7740504883157122   -0.0000021633094875
     0.0000060325394019   -0.0000005462482441   10.7626513527537941
   Ni   P 
    20    16
Direct
  0.4621226097508967  0.9242341487572386  0.5890050562867309
  0.0757661974601547  0.5378777275991237  0.5890048175992332
  0.4621173132142333  0.5378826649131814  0.5890006674376932
  0.5378766394671015  0.0757644452334243  0.0890055503169152
  0.9242353577992167  0.4621233579465905  0.0890055570286600
  0.5378825673623099  0.4621173968130537  0.0890010804174515
  0.7925539742993529  0.5850374096742514  0.7380437206765207
  0.4149630496077948  0.2074465240736469  0.7380434376835840
  0.7924838664708355  0.2075162438878909  0.7380362989280526
  0.2074463441968824  0.4149629020723151  0.2380440233688332
  0.5850369123929724  0.7925534548220028  0.2380435827975700
  0.2075160784901953  0.7924835350226945  0.2380364880535110
  0.4599742847033083  0.9199795668052472  0.8798760999894597
  0.0800209037575760  0.5400243603929443  0.8798764958028484
  0.4600136436253101  0.5399853904526362  0.8798654019001582
  0.5400244619077404  0.0800206716466974  0.3798765179848171
  0.9199793955203117  0.4599748199855470  0.3798766476541232
  0.5399862867751348  0.4600146546192764  0.3798648231751764
 -0.0000035846167655  0.0000033836290058  0.7012421432210474
  0.0000030305900733 -0.0000031705075181  0.2012435733535685
  0.1816862259152528  0.3633779895320884  0.7313424453783663
  0.6366216937821054  0.8183139082019042  0.7313424092786228
  0.1816910157282634  0.8183094480871382  0.7313410710415869
  0.8183149289979973  0.6366226191144362  0.2313424796247789
  0.3633774425216553  0.1816852962397136  0.2313426202395870
  0.8183094164648037  0.1816907732561692  0.2313411562847134
  0.8210480370278638  0.6420947773612919  0.9419975425844859
  0.3579054007408059  0.1789534938477109  0.9419974147342580
  0.8210441436587606  0.1789539325303555  0.9419931053557279
  0.1789538028913688  0.3579055424461738  0.4419975961640703
  0.6420946265706364  0.8210478440135349  0.4419974721934191
  0.1789539809619848  0.8210442569849422  0.4419926397210035
  0.9999992792744952  0.0000006832853318  0.5006327304248063
  0.0000005366621995  0.9999992415475539  0.0006333248183264
  0.6666675949815183  0.3333327745406477  0.5589371945203591
  0.3333325410456598  0.6666679311717794  0.0589368139598965
 
  0.00000000E+00  0.00000000E+00  0.00000000E+00
  0.00000000E+00  0.00000000E+00  0.00000000E+00
  0.00000000E+00  0.00000000E+00  0.00000000E+00
  0.00000000E+00  0.00000000E+00  0.00000000E+00
  0.00000000E+00  0.00000000E+00  0.00000000E+00
  0.00000000E+00  0.00000000E+00  0.00000000E+00
  0.00000000E+00  0.00000000E+00  0.00000000E+00
  0.00000000E+00  0.00000000E+00  0.00000000E+00
  0.00000000E+00  0.00000000E+00  0.00000000E+00
  0.00000000E+00  0.00000000E+00  0.00000000E+00
  0.00000000E+00  0.00000000E+00  0.00000000E+00
  0.00000000E+00  0.00000000E+00  0.00000000E+00
  0.00000000E+00  0.00000000E+00  0.00000000E+00
  0.00000000E+00  0.00000000E+00  0.00000000E+00
  0.00000000E+00  0.00000000E+00  0.00000000E+00
  0.00000000E+00  0.00000000E+00  0.00000000E+00
  0.00000000E+00  0.00000000E+00  0.00000000E+00
  0.00000000E+00  0.00000000E+00  0.00000000E+00
  0.00000000E+00  0.00000000E+00  0.00000000E+00
  0.00000000E+00  0.00000000E+00  0.00000000E+00
  0.00000000E+00  0.00000000E+00  0.00000000E+00
  0.00000000E+00  0.00000000E+00  0.00000000E+00
  0.00000000E+00  0.00000000E+00  0.00000000E+00
  0.00000000E+00  0.00000000E+00  0.00000000E+00
  0.00000000E+00  0.00000000E+00  0.00000000E+00
  0.00000000E+00  0.00000000E+00  0.00000000E+00
  0.00000000E+00  0.00000000E+00  0.00000000E+00
  0.00000000E+00  0.00000000E+00  0.00000000E+00
  0.00000000E+00  0.00000000E+00  0.00000000E+00
  0.00000000E+00  0.00000000E+00  0.00000000E+00
  0.00000000E+00  0.00000000E+00  0.00000000E+00
  0.00000000E+00  0.00000000E+00  0.00000000E+00
  0.00000000E+00  0.00000000E+00  0.00000000E+00
  0.00000000E+00  0.00000000E+00  0.00000000E+00
  0.00000000E+00  0.00000000E+00  0.00000000E+00
  0.00000000E+00  0.00000000E+00  0.00000000E+00
