Ca1 Ni4 S6 O24                          
   1.00000000000000     
     7.5399079999999996    0.2794580000000000    4.2723100000000001
     2.7863410000000002    6.8830770000000001    4.5855959999999998
     0.6495010000000000    0.2589430000000000    8.7592429999999997
   Ca   Ni   S    O 
     1     4     6    24
Direct
  0.3066250534309495  0.7350190317709324  0.5193527830417987
  0.6512586244794618  0.6424335678704198  0.6461400611121140
  0.1432934552257870  0.1592691632117319  0.1415671340655649
  0.8416848996559284  0.8412349360903888  0.8487654835702052
  0.3624983197308468  0.3424356845505657  0.3623959619579004
  0.9731906433797669  0.2371735201772367  0.5215891924026874
  0.4377148108379842  0.0397507629875921  0.7636157247488436
  0.5654478231293185  0.9702049928929446  0.2319296607408925
  0.7378329253849235  0.4639029746918133  0.0544114162301790
  0.2508665849776367  0.5247882990257376  0.9598696754039003
  0.0247749565493612  0.7510261051817592  0.4554637257567629
  0.4118851675159581  0.5805844830166301  0.7707379720417239
  0.9346027769614171  0.3112715140889966  0.0233309029839088
  0.7849027455709574  0.3670998273064678  0.6127487781135086
  0.0160868166099916  0.9580527856005557  0.3482475479429615
  0.6112985995010574  0.7620945173059412  0.3820070376239449
  0.2987488113224881  0.0088940526889763  0.9720541871529743
  0.7049187027950589  0.9826125589193808  0.0343827890249701
  0.2288253442269658  0.6238020011730614  0.3729271383134306
  0.0653689131223791  0.6941753115281601  0.9464731044839636
  0.3605746869982183  0.2453802382055726  0.6331213352671502
  0.9939739593722720  0.0224187025165556  0.6366475473777936
  0.6001335323728865  0.3990203644447544  0.2572413934253533
  0.9784687419476751  0.2977206930489608  0.3212809554162259
  0.4543687492510463  0.8975243967394877  0.7125382085948095
  0.3620290851496422  0.0131855620384572  0.2531201190916497
  0.6633770814933247  0.5210161027630427  0.9110478295262453
  0.2584779694545589  0.3557196468449232  0.9507768954951613
  0.8785118230534502  0.7252944065810655  0.4505056970773648
  0.1401653412895354  0.2479119285604977  0.5107019208359864
  0.6330003632579596  0.0121728277579181  0.7399271721001276
  0.5596024958150582  0.1035095937918184  0.2846087491645481
  0.7325279646794640  0.6422254437094018  0.0501788047185957
  0.2872643874327954  0.4763392736642160  0.1245259241233443
  0.0000104471871159  0.6911498731189026  0.6628944804420485
 
             NaN             NaN             NaN
             NaN             NaN             NaN
             NaN             NaN             NaN
             NaN             NaN             NaN
             NaN             NaN             NaN
             NaN             NaN             NaN
             NaN             NaN             NaN
             NaN             NaN             NaN
             NaN             NaN             NaN
             NaN             NaN             NaN
             NaN             NaN             NaN
             NaN             NaN             NaN
             NaN             NaN             NaN
             NaN             NaN             NaN
             NaN             NaN             NaN
             NaN             NaN             NaN
             NaN             NaN             NaN
             NaN             NaN             NaN
             NaN             NaN             NaN
             NaN             NaN             NaN
             NaN             NaN             NaN
             NaN             NaN             NaN
             NaN             NaN             NaN
             NaN             NaN             NaN
             NaN             NaN             NaN
             NaN             NaN             NaN
             NaN             NaN             NaN
             NaN             NaN             NaN
             NaN             NaN             NaN
             NaN             NaN             NaN
             NaN             NaN             NaN
             NaN             NaN             NaN
             NaN             NaN             NaN
             NaN             NaN             NaN
             NaN             NaN             NaN
