Ca1 Ni4 S6 O24                          
   1.00000000000000     
     7.5399079999999996    0.2794580000000000    4.2723100000000001
     2.7863410000000002    6.8830770000000001    4.5855959999999998
     0.6495010000000000    0.2589430000000000    8.7592429999999997
   Ca   Ni   S    O 
     1     4     6    24
Direct
  0.3302282998291624  0.7064603913836246  0.5135642981550842
  0.6515082519042232  0.6430647185217161  0.6451113987435968
  0.1444692461859142  0.1598155407836030  0.1406603358696820
  0.8417105320793408  0.8417067416263236  0.8480587693871082
  0.3602719982036894  0.3434454322567917  0.3631781578812215
  0.9689714918396004  0.2353611104586835  0.5245106421271223
  0.4405165051507593  0.0420221313014851  0.7645499967215500
  0.5659478030422841  0.9714995794894572  0.2267784001010039
  0.7347307530902891  0.4666742860864602  0.0530926313539116
  0.2482458281880366  0.5274106213980370  0.9603867100286129
  0.0248916621315333  0.7530332453771099  0.4515883725600143
  0.4057014481214800  0.5894062544337455  0.7717061078393291
  0.9395280527624197  0.3155299023044964  0.0188917690976946
  0.7815952831782433  0.3637572067123973  0.6145219301866484
  0.0092958810032819  0.9629528878664819  0.3435003085585928
  0.6138953220206625  0.7598200386107270  0.3821518199013549
  0.3005579293681549  0.0104833581053984  0.9708461084692387
  0.6982828221616785  0.9843206022923934  0.0389011002669396
  0.2280354044251592  0.6275558632984269  0.3714187732307200
  0.0581998998332608  0.6905630938368117  0.9537948624833613
  0.3609756034643970  0.2483086197932530  0.6319959542930068
  0.9951993336351307  0.0201635417762786  0.6388641019638343
  0.6031355440692154  0.3964535484427276  0.2566278251287485
  0.9792831427818187  0.2943843995936880  0.3228068511958235
  0.4591615666094676  0.8970941174534461  0.7113841641375536
  0.3587584568764248  1.0074225144142017  0.2585689805286346
  0.6660458693936199  0.5171447823988411  0.9115305259547980
  0.2636737380726347  0.3544813861607390  0.9519347514307884
  0.8824495157832879  0.7198266210498548  0.4508520468856130
  0.1368122483251443  0.2511959938132008  0.5129422390902726
  0.6334363168329628  0.0174240283354321  0.7387722422522862
  0.5554914420351799  0.1038346925678782  0.2885034847061497
  0.7266785159820672  0.6468570644274454  0.0489264372323747
  0.2861005935940285  0.4812237978150214  0.1252579279487505
  0.0003533046844082  0.6959798886787576  0.6610108406851406
 
             NaN             NaN             NaN
             NaN             NaN             NaN
             NaN             NaN             NaN
             NaN             NaN             NaN
             NaN             NaN             NaN
             NaN             NaN             NaN
             NaN             NaN             NaN
             NaN             NaN             NaN
             NaN             NaN             NaN
             NaN             NaN             NaN
             NaN             NaN             NaN
             NaN             NaN             NaN
             NaN             NaN             NaN
             NaN             NaN             NaN
             NaN             NaN             NaN
             NaN             NaN             NaN
             NaN             NaN             NaN
             NaN             NaN             NaN
             NaN             NaN             NaN
             NaN             NaN             NaN
             NaN             NaN             NaN
             NaN             NaN             NaN
             NaN             NaN             NaN
             NaN             NaN             NaN
             NaN             NaN             NaN
             NaN             NaN             NaN
             NaN             NaN             NaN
             NaN             NaN             NaN
             NaN             NaN             NaN
             NaN             NaN             NaN
             NaN             NaN             NaN
             NaN             NaN             NaN
             NaN             NaN             NaN
             NaN             NaN             NaN
             NaN             NaN             NaN
