Ca1 Fe4 S6 O24                          
   1.00000000000000     
     7.5690340000000003    0.2014490000000000    4.5744470000000002
     2.6779970000000000    7.0746529999999996    4.5853580000000003
     0.2939960000000000    0.2199380000000000    8.8438479999999995
   Ca   Fe   S    O 
     1     4     6    24
Direct
  0.3131525832316301  0.7007026984675131  0.5375179218136737
  0.6624469327265654  0.6328839013337715  0.6511221620260071
  0.1442369095832285  0.1541043958931068  0.1360820668315942
  0.8352393895778264  0.8573743372758672  0.8502499943026764
  0.3527522234871683  0.3502171039673561  0.3605253466241209
  0.9690911690185988  0.2403394785024047  0.5292332252145294
  0.4537467193916621  0.0471040592032292  0.7498354540093661
  0.5443709444214324  0.9580587066458445  0.2496961148581238
  0.7380472054948608  0.4663688166934564  0.0512332146983707
  0.2554409990587984  0.5266901496839661  0.9621334489857251
  0.0251743758292599  0.7545704784082065  0.4437156207336869
  0.4092319894245766  0.5913420215583017  0.7797161035655330
  0.9351012706510857  0.3298928102475117  0.0275759037604094
  0.7806489878189994  0.3646020639853997  0.6178325241741450
  0.0067208285585604  0.9535216011346674  0.3178884010128382
  0.5914940642165644  0.7659974778335967  0.4032000236292546
  0.3079814840343608  0.0196455760754276  0.9459391393611432
  0.6955464795032076  0.9588616936619029  0.0639694326288133
  0.2291836029607001  0.6269464995259036  0.3794792614724402
  0.0743425781290102  0.6742437457246053  0.9346598646977270
  0.3763603145705781  0.2410909581724024  0.6186341532216276
  0.9951197699914055  0.0323788246824612  0.6474024077195177
  0.6031150700371594  0.3926706262351582  0.2420590463653627
  0.9886451726717213  0.2785038234133583  0.3365309967879457
  0.5033853568497815  0.8975483870642076  0.6883144719522524
  0.3600564492649142  0.9764771532041899  0.2604729832784649
  0.6880099313142375  0.4951786340782642  0.9023893001359548
  0.2821466601323119  0.3434185631124497  0.9719257499159191
  0.8987514105937718  0.6945954985731084  0.4494450848529633
  0.1212617940132764  0.2741784616716254  0.5162823258685303
  0.6257743771549190  0.0389834183720529  0.7469496000554396
  0.5159692392201546  0.1085653448651318  0.2934482396677570
  0.7207099213617452  0.6506982810279395  0.0322005343811262
  0.2729111788706027  0.5090155750389578  0.1244145015851590
  0.9896678769179788  0.7265719305946061  0.6412164930762770
 
             NaN             NaN             NaN
             NaN             NaN             NaN
             NaN             NaN             NaN
             NaN             NaN             NaN
             NaN             NaN             NaN
             NaN             NaN             NaN
             NaN             NaN             NaN
             NaN             NaN             NaN
             NaN             NaN             NaN
             NaN             NaN             NaN
             NaN             NaN             NaN
             NaN             NaN             NaN
             NaN             NaN             NaN
             NaN             NaN             NaN
             NaN             NaN             NaN
             NaN             NaN             NaN
             NaN             NaN             NaN
             NaN             NaN             NaN
             NaN             NaN             NaN
             NaN             NaN             NaN
             NaN             NaN             NaN
             NaN             NaN             NaN
             NaN             NaN             NaN
             NaN             NaN             NaN
             NaN             NaN             NaN
             NaN             NaN             NaN
             NaN             NaN             NaN
             NaN             NaN             NaN
             NaN             NaN             NaN
             NaN             NaN             NaN
             NaN             NaN             NaN
             NaN             NaN             NaN
             NaN             NaN             NaN
             NaN             NaN             NaN
             NaN             NaN             NaN
