Ca1 Fe4 S6 O24                          
   1.00000000000000     
     7.5690340000000003    0.2014490000000000    4.5744470000000002
     2.6779970000000000    7.0746529999999996    4.5853580000000003
     0.2939960000000000    0.2199380000000000    8.8438479999999995
   Ca   Fe   S    O 
     1     4     6    24
Direct
  0.3131633236250213  0.7006594399889360  0.5375340338509312
  0.6624557577790559  0.6328949081869705  0.6511212176410955
  0.1443622886807344  0.1541534616490247  0.1360520076118377
  0.8352659837926328  0.8573432964244387  0.8502081551438765
  0.3527392231049677  0.3502291846031886  0.3605169788828343
  0.9690908143401510  0.2403405383992532  0.5292425131036270
  0.4537489567817737  0.0471162910424338  0.7498263114007682
  0.5443640571180164  0.9580507929402915  0.2497036129690764
  0.7380399467729241  0.4663648858654637  0.0512429440109138
  0.2554451304750741  0.5266785187274505  0.9621374928770305
  0.0251857545041070  0.7545689094162066  0.4436856778333881
  0.4092114999237645  0.5913429372396979  0.7797459029532932
  0.9350721763490498  0.3299326350429554  0.0275709142415560
  0.7806386389696964  0.3646261943268294  0.6178172429336134
  0.0067044398088527  0.9534984061559170  0.3178884674771220
  0.5914534148512987  0.7659965070673730  0.4032289814218428
  0.3079874007292219  0.0196513670981413  0.9459172248536386
  0.6955411250091263  0.9588357404985033  0.0640076209591864
  0.2291938359108233  0.6269518122100741  0.3794626393582690
  0.0743626763635493  0.6742231209525804  0.9346421773097185
  0.3763696479391582  0.2411149137063866  0.6186191976667417
  0.9950934574816983  0.0324127687263375  0.6474239577074707
  0.6031249755259834  0.3926639844602915  0.2420504326358396
  0.9886521068960235  0.2784723441079993  0.3365298356054223
  0.5034199257830275  0.8975203250669409  0.6883132809385279
  0.3600282912943539  0.9764316682637899  0.2605068459407101
  0.6880380958407053  0.4951855399522505  0.9023168348457149
  0.2821540233442870  0.3433684041840085  0.9719491530164168
  0.8987253944970017  0.6946038304281633  0.4494523375035823
  0.1212609066627114  0.2741844527945888  0.5162942997378972
  0.6257506988655334  0.0390196458114425  0.7469648697171409
  0.5159314582751880  0.1085623004668684  0.2934738945932985
  0.7206915963272432  0.6506991147300515  0.0322116035066804
  0.2729082416201102  0.5090352280899644  0.1244144764466507
  0.9896596607521899  0.7266101448707305  0.6412181000715430
 
             NaN             NaN             NaN
             NaN             NaN             NaN
             NaN             NaN             NaN
             NaN             NaN             NaN
             NaN             NaN             NaN
             NaN             NaN             NaN
             NaN             NaN             NaN
             NaN             NaN             NaN
             NaN             NaN             NaN
             NaN             NaN             NaN
             NaN             NaN             NaN
             NaN             NaN             NaN
             NaN             NaN             NaN
             NaN             NaN             NaN
             NaN             NaN             NaN
             NaN             NaN             NaN
             NaN             NaN             NaN
             NaN             NaN             NaN
             NaN             NaN             NaN
             NaN             NaN             NaN
             NaN             NaN             NaN
             NaN             NaN             NaN
             NaN             NaN             NaN
             NaN             NaN             NaN
             NaN             NaN             NaN
             NaN             NaN             NaN
             NaN             NaN             NaN
             NaN             NaN             NaN
             NaN             NaN             NaN
             NaN             NaN             NaN
             NaN             NaN             NaN
             NaN             NaN             NaN
             NaN             NaN             NaN
             NaN             NaN             NaN
             NaN             NaN             NaN
