Ti20 P16 O80                            
   1.00000000000000     
    12.8243903207692576   -0.0000008649029477    0.0000005014379669
    -0.0000009991794246   14.4882907203726550   -0.0000796093558611
     0.0000002991275757   -0.0000002571524453    7.5393416800240018
   Ti   P    O 
    20    16    80
Direct
  0.1431580601345104  0.1793333668517221  0.6087383622860685
  0.3568296435693767  0.8206607432395572  0.1087418313495547
  0.6431580235450696  0.3206666698935123  0.3912616578223123
  0.8568295576503147  0.6793392325443861  0.8912582699714733
  0.3753498585905319  0.4413512402381201  0.8775147953658760
  0.1246384003001424  0.5586451002842594  0.3775026620424740
  0.8753498423284469  0.0586487534176641  0.1224852403014154
  0.6246385287507650  0.9413547620013532  0.6224973371818194
  0.6092990831052276  0.7042984426191836  0.1447758170563844
  0.8907000459748815  0.2957051267943598  0.6447737659151400
  0.1092991870286468  0.7957016325360939  0.8552242942027206
  0.3907000076956777  0.2042948979413879  0.3552259754864195
  0.6322943415598701  0.1716169737049285  0.1002272546186163
  0.8676963604159127  0.8283848549420796  0.6002204972884755
  0.1322943513112307  0.3283830177616807  0.8997727097680013
  0.3676963234248163  0.6716149891731291  0.3997798203464455
  0.8833937097072706  0.4451180773008758  0.3540185262121653
  0.6165944670208816  0.5548823224385870  0.8540175230761236
  0.3833938177368950  0.0548819263948346  0.6459815703557297
  0.1165944922648805  0.9451176958252603  0.1459825306692792
  0.9944369944765370  0.5006845477391408  0.7363533354438587
  0.5055625883693367  0.4993196016174082  0.2363588026530294
  0.4944370658597776  0.9993154805565680  0.2636467688562902
  0.0055625797638470  0.0006803852028270  0.7636411303919104
  0.5105377561741378  0.2537848448959750  0.7404944693595894
  0.9894616754634811  0.7462109070314327  0.2404959604484986
  0.0105377716204558  0.2462151509866430  0.2595055183898012
  0.4894614003272650  0.7537887284157136  0.7595040600177185
  0.2409387347565755  0.6195820737636666  0.0194372043765512
  0.2590608438275979  0.3804178461712837  0.5194415856704566
  0.7409387248304284  0.8804179319330316  0.9805627246246473
  0.7590608216498254  0.1195821508495456  0.4805584908650644
  0.2431479384363371  0.8714918169525347  0.5013038791658531
  0.2568497768326452  0.1285026043562993  0.0013095615779406
  0.7431479428929535  0.6285082286706469  0.4986962364298222
  0.7568495644173510  0.3714975857093847  0.9986902332388681
  0.1911767576066055  0.0569905469875636  0.0951581582747778
  0.3088262952330183  0.9430014424248796  0.5951634767090255
  0.6911765789837574  0.4430096738665910  0.9048419960601706
  0.8088263184894089  0.5569985382645442  0.4048364347177369
  0.5537336246399320  0.0605284222764624  0.1361205517247015
  0.9462574598013234  0.9394771791528669  0.6361072579380291
  0.0537335967969739  0.4394716020521159  0.8638794423157776
  0.4462574556079772  0.5605228411989884  0.3638927413337072
  0.6847815057412916  0.6857193196242477  0.3617433027050936
  0.8152160223579941  0.3142917529300462  0.8617222529795043
  0.1847814955872238  0.8142807118169770  0.6382567389556115
  0.3152170288298493  0.1857089680788064  0.1382758193452460
  0.1766687956413691  0.5580069890906714  0.1367681382285610
  0.3233376538508566  0.4419927560329242  0.6367593537746572
  0.6766688589855079  0.9419930304684243  0.8632319493136222
  0.8233376825854180  0.0580072345119120  0.3632405932192668
  0.5662641665256558  0.9442912307802516  0.3806854158008477
  0.9337482472927121  0.0557093697833082  0.8806866664841593
  0.0662641242823128  0.5557088161297727  0.6193145206067427
  0.4337482276428091  0.4442906687536592  0.1193133740355776
  0.4363359337671753  0.3184955637599458  0.8315514548345391
  0.0636599459311071  0.6815003020543173  0.3315562084838461
  0.9363359468929673  0.1815044756829494  0.1684485456287206
  0.5636597686155085  0.8184996762338130  0.6684438522962424
  0.3128786934762573  0.5645449034421404  0.9033388087491616
  0.1871297672909051  0.4354447211932282  0.4033245912364052
  0.8128786990326162  0.9354551800968807  0.0966612077172968
  0.6871298910138108  0.0645552040208770  0.5966752813881797
  0.9822993646791076  0.7586616298681008  0.7736206933095318
  0.5177042988840341  0.2413517090957242  0.2736198546640196
  0.4822993444961909  0.7413383726304374  0.2263792737761818
  0.0177042796076421  0.2586483179632921  0.7263802302939482
  0.9989985577314044  0.9987783587211112  0.2035923019826384
  0.5010165842932182  0.0012297644524324  0.7035961923715774
  0.4989985261235077  0.5012216621925276  0.7964076934822160
  0.0010166261588793  0.4987702378786238  0.2964037697028346
  0.7491743812607368  0.8797835519203687  0.5394639706315516
  0.7508390059327041  0.1202134636173113  0.0394604116030166
  0.2491747523519479  0.6202155331455117  0.4605372328196253
  0.2508389584383579  0.3797865644130667  0.9605396331746263
  0.1665699175932858  0.9190410925359060  0.3780086648340699
  0.3334322203335276  0.0809618777429790  0.8780080685789713
  0.6665699110749586  0.5809589180394283  0.6219913508430608
  0.8334322745290876  0.4190380526994986  0.1219917383490809
  0.9126905573068953  0.6944033017424118  0.1211113275998699
  0.5873124448592080  0.3055912882446634  0.6211165174374997
  0.4126904912250069  0.8055966655633284  0.8788887328778543
  0.0873124287166505  0.1944087392479403  0.3788834644835148
  0.1691949500739938  0.6805055125162269  0.9067883712940130
  0.3308046262098259  0.3194827467959414  0.4068034730067183
  0.6691949001231166  0.8194945140926180  0.0932116513387911
  0.8308046303357415  0.1805172784094609  0.5931965232059682
  0.0795409556780555  0.0638966477468230  0.6621933199579573
  0.4204613429705262  0.9360959042842367  0.1621958598055002
  0.5795409160270069  0.4361033969244161  0.3378066945593758
  0.9204613480041033  0.5639040826116144  0.8378041775496712
  0.6922322142629369  0.1857758556784361  0.3627607922366138
  0.8077695959882192  0.8142218097823815  0.8627760735683694
  0.1922322071609130  0.3142241696336256  0.6372392275954866
  0.3077694286592063  0.6857781340397935  0.1372243660324486
  0.9296890970846121  0.8023406582852033  0.3764355533491539
  0.5703035933535645  0.1976580662474632  0.8764462333853942
  0.4296890350881029  0.6976593384548693  0.6235643720210646
  0.0703035982947284  0.3023419542655006  0.1235537825042385
  0.7296216653931893  0.6427495794953799  0.9698870293699997
  0.7703816488950821  0.3572626156307734  0.4698774765611233
  0.2296216784466480  0.8572504374445131  0.0301130029002152
  0.2703816234951546  0.1427374243225046  0.5301224160087870
  0.1867096273219460  0.1920375722370622  0.8852029271078692
  0.3132899692934288  0.8079584592287503  0.3851979238071124
  0.6867097026154241  0.3079624439961250  0.1147969842189696
  0.8132900989905281  0.6920413596973205  0.6148021855248373
  0.9508635865848589  0.3133476245051980  0.3831143391455569
  0.5491389830623561  0.6866565459329266  0.8831084278721875
  0.4508636028490471  0.1866524096955615  0.6168856754217913
  0.0491390191148682  0.8133434696333737  0.1168915243750064
  0.4250268660375198  0.0652907737582780  0.3781713395126545
  0.0749684289704859  0.9346989482543151  0.8781608905650842
  0.9250268783045783  0.4347092484550075  0.6218285935575167
  0.5749684313976147  0.5653010847653874  0.1218391321412540
 
  0.00000000E+00  0.00000000E+00  0.00000000E+00
  0.00000000E+00  0.00000000E+00  0.00000000E+00
  0.00000000E+00  0.00000000E+00  0.00000000E+00
  0.00000000E+00  0.00000000E+00  0.00000000E+00
  0.00000000E+00  0.00000000E+00  0.00000000E+00
  0.00000000E+00  0.00000000E+00  0.00000000E+00
  0.00000000E+00  0.00000000E+00  0.00000000E+00
  0.00000000E+00  0.00000000E+00  0.00000000E+00
  0.00000000E+00  0.00000000E+00  0.00000000E+00
  0.00000000E+00  0.00000000E+00  0.00000000E+00
  0.00000000E+00  0.00000000E+00  0.00000000E+00
  0.00000000E+00  0.00000000E+00  0.00000000E+00
  0.00000000E+00  0.00000000E+00  0.00000000E+00
  0.00000000E+00  0.00000000E+00  0.00000000E+00
  0.00000000E+00  0.00000000E+00  0.00000000E+00
  0.00000000E+00  0.00000000E+00  0.00000000E+00
  0.00000000E+00  0.00000000E+00  0.00000000E+00
  0.00000000E+00  0.00000000E+00  0.00000000E+00
  0.00000000E+00  0.00000000E+00  0.00000000E+00
  0.00000000E+00  0.00000000E+00  0.00000000E+00
  0.00000000E+00  0.00000000E+00  0.00000000E+00
  0.00000000E+00  0.00000000E+00  0.00000000E+00
  0.00000000E+00  0.00000000E+00  0.00000000E+00
  0.00000000E+00  0.00000000E+00  0.00000000E+00
  0.00000000E+00  0.00000000E+00  0.00000000E+00
  0.00000000E+00  0.00000000E+00  0.00000000E+00
  0.00000000E+00  0.00000000E+00  0.00000000E+00
  0.00000000E+00  0.00000000E+00  0.00000000E+00
  0.00000000E+00  0.00000000E+00  0.00000000E+00
  0.00000000E+00  0.00000000E+00  0.00000000E+00
  0.00000000E+00  0.00000000E+00  0.00000000E+00
  0.00000000E+00  0.00000000E+00  0.00000000E+00
  0.00000000E+00  0.00000000E+00  0.00000000E+00
  0.00000000E+00  0.00000000E+00  0.00000000E+00
  0.00000000E+00  0.00000000E+00  0.00000000E+00
  0.00000000E+00  0.00000000E+00  0.00000000E+00
  0.00000000E+00  0.00000000E+00  0.00000000E+00
  0.00000000E+00  0.00000000E+00  0.00000000E+00
  0.00000000E+00  0.00000000E+00  0.00000000E+00
  0.00000000E+00  0.00000000E+00  0.00000000E+00
  0.00000000E+00  0.00000000E+00  0.00000000E+00
  0.00000000E+00  0.00000000E+00  0.00000000E+00
  0.00000000E+00  0.00000000E+00  0.00000000E+00
  0.00000000E+00  0.00000000E+00  0.00000000E+00
  0.00000000E+00  0.00000000E+00  0.00000000E+00
  0.00000000E+00  0.00000000E+00  0.00000000E+00
  0.00000000E+00  0.00000000E+00  0.00000000E+00
  0.00000000E+00  0.00000000E+00  0.00000000E+00
  0.00000000E+00  0.00000000E+00  0.00000000E+00
  0.00000000E+00  0.00000000E+00  0.00000000E+00
  0.00000000E+00  0.00000000E+00  0.00000000E+00
  0.00000000E+00  0.00000000E+00  0.00000000E+00
  0.00000000E+00  0.00000000E+00  0.00000000E+00
  0.00000000E+00  0.00000000E+00  0.00000000E+00
  0.00000000E+00  0.00000000E+00  0.00000000E+00
  0.00000000E+00  0.00000000E+00  0.00000000E+00
  0.00000000E+00  0.00000000E+00  0.00000000E+00
  0.00000000E+00  0.00000000E+00  0.00000000E+00
  0.00000000E+00  0.00000000E+00  0.00000000E+00
  0.00000000E+00  0.00000000E+00  0.00000000E+00
  0.00000000E+00  0.00000000E+00  0.00000000E+00
  0.00000000E+00  0.00000000E+00  0.00000000E+00
  0.00000000E+00  0.00000000E+00  0.00000000E+00
  0.00000000E+00  0.00000000E+00  0.00000000E+00
  0.00000000E+00  0.00000000E+00  0.00000000E+00
  0.00000000E+00  0.00000000E+00  0.00000000E+00
  0.00000000E+00  0.00000000E+00  0.00000000E+00
  0.00000000E+00  0.00000000E+00  0.00000000E+00
  0.00000000E+00  0.00000000E+00  0.00000000E+00
  0.00000000E+00  0.00000000E+00  0.00000000E+00
  0.00000000E+00  0.00000000E+00  0.00000000E+00
  0.00000000E+00  0.00000000E+00  0.00000000E+00
  0.00000000E+00  0.00000000E+00  0.00000000E+00
  0.00000000E+00  0.00000000E+00  0.00000000E+00
  0.00000000E+00  0.00000000E+00  0.00000000E+00
  0.00000000E+00  0.00000000E+00  0.00000000E+00
  0.00000000E+00  0.00000000E+00  0.00000000E+00
  0.00000000E+00  0.00000000E+00  0.00000000E+00
  0.00000000E+00  0.00000000E+00  0.00000000E+00
  0.00000000E+00  0.00000000E+00  0.00000000E+00
  0.00000000E+00  0.00000000E+00  0.00000000E+00
  0.00000000E+00  0.00000000E+00  0.00000000E+00
  0.00000000E+00  0.00000000E+00  0.00000000E+00
  0.00000000E+00  0.00000000E+00  0.00000000E+00
  0.00000000E+00  0.00000000E+00  0.00000000E+00
  0.00000000E+00  0.00000000E+00  0.00000000E+00
  0.00000000E+00  0.00000000E+00  0.00000000E+00
  0.00000000E+00  0.00000000E+00  0.00000000E+00
  0.00000000E+00  0.00000000E+00  0.00000000E+00
  0.00000000E+00  0.00000000E+00  0.00000000E+00
  0.00000000E+00  0.00000000E+00  0.00000000E+00
  0.00000000E+00  0.00000000E+00  0.00000000E+00
  0.00000000E+00  0.00000000E+00  0.00000000E+00
  0.00000000E+00  0.00000000E+00  0.00000000E+00
  0.00000000E+00  0.00000000E+00  0.00000000E+00
  0.00000000E+00  0.00000000E+00  0.00000000E+00
  0.00000000E+00  0.00000000E+00  0.00000000E+00
  0.00000000E+00  0.00000000E+00  0.00000000E+00
  0.00000000E+00  0.00000000E+00  0.00000000E+00
  0.00000000E+00  0.00000000E+00  0.00000000E+00
  0.00000000E+00  0.00000000E+00  0.00000000E+00
  0.00000000E+00  0.00000000E+00  0.00000000E+00
  0.00000000E+00  0.00000000E+00  0.00000000E+00
  0.00000000E+00  0.00000000E+00  0.00000000E+00
  0.00000000E+00  0.00000000E+00  0.00000000E+00
  0.00000000E+00  0.00000000E+00  0.00000000E+00
  0.00000000E+00  0.00000000E+00  0.00000000E+00
  0.00000000E+00  0.00000000E+00  0.00000000E+00
  0.00000000E+00  0.00000000E+00  0.00000000E+00
  0.00000000E+00  0.00000000E+00  0.00000000E+00
  0.00000000E+00  0.00000000E+00  0.00000000E+00
  0.00000000E+00  0.00000000E+00  0.00000000E+00
  0.00000000E+00  0.00000000E+00  0.00000000E+00
  0.00000000E+00  0.00000000E+00  0.00000000E+00
  0.00000000E+00  0.00000000E+00  0.00000000E+00
  0.00000000E+00  0.00000000E+00  0.00000000E+00
