Cr8 P16 O52                             
   1.00000000000000     
     7.7982903765449754    0.0000000049825786   -2.1690017081330724
     0.0000000131826682    8.7994381916647093    0.0000000175602375
    -0.0038593101031479    0.0000000276092787   13.0856943703018072
   Cr   P    O 
     8    16    52
Direct
  0.9577396051228533  0.5028038842799987  0.7790663086501155
  0.0422087225859187  0.0028358069987959  0.7209238752815494
  0.0422087246318767  0.4971641915173635  0.2209238698102212
  0.9577396060364407  0.9971961168169301  0.2790663017925681
  0.5632079165519670  0.4966995793504978  0.7611964529816717
  0.4367511169286473  0.9966721829406922  0.7388215978008219
  0.4367511190370834  0.5033278190114174  0.2388216013398008
  0.5632079180985627  0.0033004192895731  0.2611964567798850
  0.5016664717164048  0.2478358127525624  0.4328659178216157
  0.4983381765103161  0.7478375000978090  0.0671336825092510
  0.4983381804790739  0.7521624970618959  0.5671336820300539
  0.5016664771388051  0.2521641960381515  0.9328659212363988
  0.1330840975842094  0.2573477651226881  0.4309875952497464
  0.8669156924840138  0.7573477559933650  0.0690148658638208
  0.8669156945937146  0.7426522402211546  0.5690148670356763
  0.1330840984797987  0.2426522442432955  0.9309875998051425
  0.7138987862781008  0.2233396145845035  0.6580399087647635
  0.2861135240634027  0.7233756996407479  0.8419631704132300
  0.2861135214499768  0.7766242965546439  0.3419631716114182
  0.7138987805945192  0.2766603907140563  0.1580399127252647
  0.2146495612754151  0.3010178409033699  0.6612478056517688
  0.7853401148804195  0.8010133131549466  0.8387551356914713
  0.7853401178309625  0.6989866827543025  0.3387551365785768
  0.2146495665633879  0.1989821630026682  0.1612478062789151
  0.1192181025478476  0.3269186609038499  0.5396570356885348
  0.8807851602554422  0.8269081387906283  0.9603421707971833
  0.8807851584977797  0.6730918593986033  0.4603421715953573
  0.1192181009766742  0.1730813384601859  0.0396570368743383
  0.3260018301899308  0.1954782573261511  0.4561668572097304
  0.6740010111762089  0.6954671513222976  0.0438314350563545
  0.6740010093828914  0.8045328469693231  0.5438314321775763
  0.3260018299742029  0.3045217422150728  0.9561668548702684
  0.6181044484937956  0.2913513295810972  0.5449303160300119
  0.3819177760616057  0.7913622254982613  0.9550677093254052
  0.3819177695369191  0.7086377744110735  0.4550677113455777
  0.6181044398676647  0.2086486717671150  0.0449303174925291
  0.7490360411678978  0.3700755831271181  0.7256727236702218
  0.2510338294541938  0.8701269088387988  0.7743365703622089
  0.2510338304545883  0.6298730923580678  0.2743365744874851
  0.7490360406645280  0.1299244156231367  0.2256727283103572
  0.7774701571181879  0.6250261356113143  0.8246382608171103
  0.2224745733946278  0.1250336923181479  0.6753528498134429
  0.2224745767133243  0.3749663053571695  0.1753528509338977
  0.7774701625830005  0.8749738664580491  0.3246382618183503
  0.5832072853453099  0.3827335299245007  0.8929337585675938
  0.4167903523060090  0.8827193454685371  0.6070640486542231
  0.4167903523556120  0.6172806582310315  0.1070640495855386
  0.5832072845733052  0.1172664644386003  0.3929337597468887
  0.5331451280970612  0.6106951404188408  0.6301740529494495
  0.4668518041562422  0.1107052496055587  0.8698139221114118
  0.4668518057257032  0.3892947458602762  0.3698139279786261
  0.5331451292528797  0.8893048620049200  0.1301740560424065
  0.1238454169468994  0.6515540194537124  0.8518623437212156
  0.8761650200864608  0.1515202201087646  0.6481092553923773
  0.8761650196064039  0.3484797758912848  0.1481092512264865
  0.1238454144171186  0.8484459828917039  0.3518623359502087
  0.8964503593679467  0.6133912217821162  0.6441470299537997
  0.1035212867377382  0.1134004210044424  0.8558487119018992
  0.1035212849652396  0.3865995771675728  0.3558487156130496
  0.8964503551870777  0.8866087786110839  0.1441470294207647
  0.3928929456508499  0.3602844791307689  0.6795638346397013
  0.6071183001420266  0.8603163877590845  0.8204570459416232
  0.6071183037999361  0.6396836160437331  0.3204570450528479
  0.3928929475687255  0.1397155186747625  0.1795638340012076
  0.0167258711206415  0.3768426536614342  0.9070522124041247
  0.9833010145025085  0.8768253457181885  0.5929536637622235
  0.9833010108822435  0.6231746573713366  0.0929536620613405
  0.0167258661199909  0.1231573413151068  0.4070522094596427
  0.3994660947052111  0.6182041968276835  0.8041829580870115
  0.6005619312692971  0.1181719171510522  0.6958197661318266
  0.6005619368972717  0.3818280806143619  0.1958197701949160
  0.3994660982528018  0.8817958040574467  0.3041829613780607
  0.1133608264822215  0.3782300824951008  0.7252881146115016
  0.8866396441479978  0.8781997467128235  0.7747170225339275
  0.8866396448031821  0.6218002532345821  0.2747170228537286
  0.1133608251008837  0.1217699169886757  0.2252881156906739
 
  0.00000000E+00  0.00000000E+00  0.00000000E+00
  0.00000000E+00  0.00000000E+00  0.00000000E+00
  0.00000000E+00  0.00000000E+00  0.00000000E+00
  0.00000000E+00  0.00000000E+00  0.00000000E+00
  0.00000000E+00  0.00000000E+00  0.00000000E+00
  0.00000000E+00  0.00000000E+00  0.00000000E+00
  0.00000000E+00  0.00000000E+00  0.00000000E+00
  0.00000000E+00  0.00000000E+00  0.00000000E+00
  0.00000000E+00  0.00000000E+00  0.00000000E+00
  0.00000000E+00  0.00000000E+00  0.00000000E+00
  0.00000000E+00  0.00000000E+00  0.00000000E+00
  0.00000000E+00  0.00000000E+00  0.00000000E+00
  0.00000000E+00  0.00000000E+00  0.00000000E+00
  0.00000000E+00  0.00000000E+00  0.00000000E+00
  0.00000000E+00  0.00000000E+00  0.00000000E+00
  0.00000000E+00  0.00000000E+00  0.00000000E+00
  0.00000000E+00  0.00000000E+00  0.00000000E+00
  0.00000000E+00  0.00000000E+00  0.00000000E+00
  0.00000000E+00  0.00000000E+00  0.00000000E+00
  0.00000000E+00  0.00000000E+00  0.00000000E+00
  0.00000000E+00  0.00000000E+00  0.00000000E+00
  0.00000000E+00  0.00000000E+00  0.00000000E+00
  0.00000000E+00  0.00000000E+00  0.00000000E+00
  0.00000000E+00  0.00000000E+00  0.00000000E+00
  0.00000000E+00  0.00000000E+00  0.00000000E+00
  0.00000000E+00  0.00000000E+00  0.00000000E+00
  0.00000000E+00  0.00000000E+00  0.00000000E+00
  0.00000000E+00  0.00000000E+00  0.00000000E+00
  0.00000000E+00  0.00000000E+00  0.00000000E+00
  0.00000000E+00  0.00000000E+00  0.00000000E+00
  0.00000000E+00  0.00000000E+00  0.00000000E+00
  0.00000000E+00  0.00000000E+00  0.00000000E+00
  0.00000000E+00  0.00000000E+00  0.00000000E+00
  0.00000000E+00  0.00000000E+00  0.00000000E+00
  0.00000000E+00  0.00000000E+00  0.00000000E+00
  0.00000000E+00  0.00000000E+00  0.00000000E+00
  0.00000000E+00  0.00000000E+00  0.00000000E+00
  0.00000000E+00  0.00000000E+00  0.00000000E+00
  0.00000000E+00  0.00000000E+00  0.00000000E+00
  0.00000000E+00  0.00000000E+00  0.00000000E+00
  0.00000000E+00  0.00000000E+00  0.00000000E+00
  0.00000000E+00  0.00000000E+00  0.00000000E+00
  0.00000000E+00  0.00000000E+00  0.00000000E+00
  0.00000000E+00  0.00000000E+00  0.00000000E+00
  0.00000000E+00  0.00000000E+00  0.00000000E+00
  0.00000000E+00  0.00000000E+00  0.00000000E+00
  0.00000000E+00  0.00000000E+00  0.00000000E+00
  0.00000000E+00  0.00000000E+00  0.00000000E+00
  0.00000000E+00  0.00000000E+00  0.00000000E+00
  0.00000000E+00  0.00000000E+00  0.00000000E+00
  0.00000000E+00  0.00000000E+00  0.00000000E+00
  0.00000000E+00  0.00000000E+00  0.00000000E+00
  0.00000000E+00  0.00000000E+00  0.00000000E+00
  0.00000000E+00  0.00000000E+00  0.00000000E+00
  0.00000000E+00  0.00000000E+00  0.00000000E+00
  0.00000000E+00  0.00000000E+00  0.00000000E+00
  0.00000000E+00  0.00000000E+00  0.00000000E+00
  0.00000000E+00  0.00000000E+00  0.00000000E+00
  0.00000000E+00  0.00000000E+00  0.00000000E+00
  0.00000000E+00  0.00000000E+00  0.00000000E+00
  0.00000000E+00  0.00000000E+00  0.00000000E+00
  0.00000000E+00  0.00000000E+00  0.00000000E+00
  0.00000000E+00  0.00000000E+00  0.00000000E+00
  0.00000000E+00  0.00000000E+00  0.00000000E+00
  0.00000000E+00  0.00000000E+00  0.00000000E+00
  0.00000000E+00  0.00000000E+00  0.00000000E+00
  0.00000000E+00  0.00000000E+00  0.00000000E+00
  0.00000000E+00  0.00000000E+00  0.00000000E+00
  0.00000000E+00  0.00000000E+00  0.00000000E+00
  0.00000000E+00  0.00000000E+00  0.00000000E+00
  0.00000000E+00  0.00000000E+00  0.00000000E+00
  0.00000000E+00  0.00000000E+00  0.00000000E+00
  0.00000000E+00  0.00000000E+00  0.00000000E+00
  0.00000000E+00  0.00000000E+00  0.00000000E+00
  0.00000000E+00  0.00000000E+00  0.00000000E+00
  0.00000000E+00  0.00000000E+00  0.00000000E+00
