Ca2 Mn4 S6 O24                          
   1.00000000000000     
     7.8182127796265224    0.1755966249266384    4.5988829362118215
     2.7316108190320398    7.3086633675166688    4.6064414078840157
     0.2577555280853170    0.1943474920469686    8.9246476269294952
   Ca   Mn   S    O 
     2     4     6    24
Direct
  0.9805749730005502  0.0597968524434833  0.9543144290401031
  0.4022410004352679  0.7308581130210783  0.1280171144606257
  0.6517290735087400  0.6248700602003652  0.6386986547748776
  0.1705510451483079  0.1738751718491258  0.1326693938820398
  0.8533950773651426  0.8454105482173517  0.8470236223664429
  0.3260653777730127  0.3346932553267052  0.3691757766859141
  0.9537278349317901  0.2431304199608064  0.5529208705843303
  0.4626544466534384  0.0176869724165840  0.7517333843399427
  0.5366035235340760  0.9622264719934890  0.2388939428237009
  0.7565166068617941  0.4277234378054402  0.0425524119009424
  0.2380056909839254  0.5819962018603064  0.9546318023509741
  0.0403817807889126  0.7477747877554677  0.4451733255255732
  0.4101491448919674  0.5516919041004655  0.7982910628463031
  0.9171203608029330  0.2697191870389588  0.0925661671890765
  0.8117557577269991  0.4236446472627193  0.5049462765674093
  0.0806347930498248  0.8961113868616550  0.2534394753257772
  0.5283867377746674  0.8421975318291786  0.4307755519238725
  0.2725821094358452  0.0743577916202014  0.8957384040833674
  0.7295085237770138  0.9161128885657419  0.1052042863848186
  0.2166539613996079  0.5839334925700612  0.4335765077419609
  0.1039215615952216  0.7742413675991102  0.8968467335263171
  0.4660190133994178  0.1387297826914704  0.5623984746825101
  0.8700659868706708  0.1155067701680750  0.7370711239537755
  0.5847976764344907  0.4140510607602224  0.2058709142350210
  0.0483730043125021  0.1632189983107892  0.4075647430412204
  0.4967426737676703  0.8235293100931784  0.7882028275946951
  0.4180508714355540  0.9373831223190408  0.1906280438531169
  0.7570525147973015  0.4135334902974748  0.8855275209551081
  0.1511479993912133  0.4502379216553152  0.0220221358835104
  0.8889399934328850  0.7077151061560230  0.4785812222944585
  0.0917925367505674  0.2558712136488239  0.5848802843910406
  0.5950069655765802  0.0166789684938564  0.7969224880162216
  0.4620608167243603  0.1597459400630399  0.2125830528927537
  0.7610969355051935  0.6091251930918702  0.9917581767097801
  0.2701691230479355  0.5648214161649889  0.1110271931027143
  0.0020245071146618  0.8063992157875646  0.5883726040697042
 
  0.00000000E+00  0.00000000E+00  0.00000000E+00
  0.00000000E+00  0.00000000E+00  0.00000000E+00
  0.00000000E+00  0.00000000E+00  0.00000000E+00
  0.00000000E+00  0.00000000E+00  0.00000000E+00
  0.00000000E+00  0.00000000E+00  0.00000000E+00
  0.00000000E+00  0.00000000E+00  0.00000000E+00
  0.00000000E+00  0.00000000E+00  0.00000000E+00
  0.00000000E+00  0.00000000E+00  0.00000000E+00
  0.00000000E+00  0.00000000E+00  0.00000000E+00
  0.00000000E+00  0.00000000E+00  0.00000000E+00
  0.00000000E+00  0.00000000E+00  0.00000000E+00
  0.00000000E+00  0.00000000E+00  0.00000000E+00
  0.00000000E+00  0.00000000E+00  0.00000000E+00
  0.00000000E+00  0.00000000E+00  0.00000000E+00
  0.00000000E+00  0.00000000E+00  0.00000000E+00
  0.00000000E+00  0.00000000E+00  0.00000000E+00
  0.00000000E+00  0.00000000E+00  0.00000000E+00
  0.00000000E+00  0.00000000E+00  0.00000000E+00
  0.00000000E+00  0.00000000E+00  0.00000000E+00
  0.00000000E+00  0.00000000E+00  0.00000000E+00
  0.00000000E+00  0.00000000E+00  0.00000000E+00
  0.00000000E+00  0.00000000E+00  0.00000000E+00
  0.00000000E+00  0.00000000E+00  0.00000000E+00
  0.00000000E+00  0.00000000E+00  0.00000000E+00
  0.00000000E+00  0.00000000E+00  0.00000000E+00
  0.00000000E+00  0.00000000E+00  0.00000000E+00
  0.00000000E+00  0.00000000E+00  0.00000000E+00
  0.00000000E+00  0.00000000E+00  0.00000000E+00
  0.00000000E+00  0.00000000E+00  0.00000000E+00
  0.00000000E+00  0.00000000E+00  0.00000000E+00
  0.00000000E+00  0.00000000E+00  0.00000000E+00
  0.00000000E+00  0.00000000E+00  0.00000000E+00
  0.00000000E+00  0.00000000E+00  0.00000000E+00
  0.00000000E+00  0.00000000E+00  0.00000000E+00
  0.00000000E+00  0.00000000E+00  0.00000000E+00
  0.00000000E+00  0.00000000E+00  0.00000000E+00
