Mn20 Si12 O48                           
   1.00000000000000     
     5.9270121021847464    5.9231286099584866    5.8942128953063584
     5.8696945247195433   -5.9067349275629502   -5.8737522093492904
    -5.9146611066556645    5.8849324667224021   -5.8974074204223390
   Mn   Si   O 
    20    12    48
Direct
  0.1261153788151361  0.8801539329792973  0.7520031697776730
  0.3740970593346731  0.6253022580128302  0.2446616874518099
  0.2512344407097586  0.8792352587496595  0.1258719357126523
  0.7541066013943194  0.6240343846421936  0.3811725248828495
  0.3774238918601398  0.2531038747138297  0.1259187008182820
  0.1259548521001648  0.7509182784317048  0.3745817353023639
  0.8721930477521127  0.1201405452651017  0.2470662655527249
  0.6264294110237287  0.3751017795673306  0.7558335952942556
  0.7488190204410543  0.1210171601469625  0.8740555604205014
  0.2458320467913993  0.3758274375989927  0.6187552007271506
  0.6225972667206889  0.7467110576375902  0.8739858507375828
  0.8747445478449194  0.2498914591968742  0.6255554139523696
  0.9997845290497125  0.9997285761020649  0.4996437015750317
  0.5000041602013567  0.5000015357030918  0.5000523232816434
  0.0001091467538998  0.5000242372680717  0.0000705351686534
  0.4998067914702844  0.9999021001376036  0.9998846348428359
  0.0001470646336728  0.4999839769229837  0.5000935056254079
  0.5001383842113896  0.0001733176486169  0.5001993551889470
  0.4999853009130248  0.4997937823954359  0.0000720307783197
  0.9997549528823697  0.9999528738039984  0.9999222396996501
  0.7461671869026887  0.3657505340279243  0.1303417251595960
  0.2387144633325136  0.1177345335078357  0.3717457950466283
  0.3799641083029428  0.7483249880801637  0.6166309943123807
  0.1337882364956471  0.2593597592987607  0.8736591112382754
  0.6218046749093205  0.8773160705754108  0.2496016772167309
  0.8759267307257659  0.6304602380116648  0.7577332540039450
  0.2541183024243452  0.6343316348564869  0.8698510252511582
  0.7611338746402012  0.8822772366538487  0.6280788992726727
  0.6201039489233082  0.2517892217573632  0.3835601033523801
  0.8661941874178538  0.7404435540746164  0.1261725554082318
  0.3781588016648172  0.1226019445985216  0.7504834991771929
  0.1241381696585222  0.3695386348105103  0.2423184299972760
  0.3833010930207621  0.2998204743198229  0.5124122064251182
  0.0939343209925667  0.1098621602913568  0.4118529757536749
  0.7084702079832113  0.1837436645111907  0.0983340952622811
  0.7785196300112176  0.3631329967804717  0.9839117558512314
  0.0916823975431242  0.2198741746451702  0.6910251968067627
  0.9975756139189826  0.3068976829722345  0.8856379098642861
  0.5255055501375949  0.8902440952002308  0.7969116367738920
  0.4108076419857341  0.5971619604389033  0.6042703162319043
  0.8818318584676206  0.4861727072719830  0.7955182414024122
  0.6940810288014134  0.5905537428616583  0.7211038446907168
  0.6061449338302936  0.9094910818448412  0.0997472197991769
  0.8039076110746635  0.0175654739165196  0.3903051659531656
  0.6165057206990525  0.7001884922249388  0.4874909222105046
  0.9059262727240451  0.8898618255610913  0.5879669913038796
  0.2914097041978110  0.8161731177114646  0.9016283399598848
  0.2217873894129099  0.6369736052462827  0.0162866926472631
  0.9083252215460575  0.7798081838799007  0.3087880832141536
  0.0025835294918863  0.6931667519455402  0.1142855932418314
  0.4745377371120867  0.1098946328353207  0.2032957020123831
  0.5893879872366199  0.4030112073976042  0.3959120255805857
  0.1184242839208949  0.5139162258413350  0.2045942978691073
  0.3059523235313648  0.4093784713599575  0.2790013255495651
  0.3935773682786490  0.0904976763023484  0.9003332406287470
  0.1961282819619612  0.9823159362022480  0.6095718285084644
  0.3838803178703643  0.7922927158148099  0.4765601214962771
  0.1967819038554097  0.7022017918499230  0.5775949030740577
  0.1353885254918623  0.1153586673644185  0.9095454666248486
  0.3158008433352961  0.4086342359012320  0.0146610009979398
  0.8988576575461096  0.5076704597409716  0.3125727519377079
  0.6075206128652439  0.4079064531542613  0.1381039498891283
  0.1935402717518144  0.0881935478636393  0.1902827546690204
  0.2733177650357206  0.9720895353712820  0.3660192636547208
  0.5830862799910008  0.6933138679787447  0.2019966880782889
  0.4878144056712301  0.8860360596767407  0.3006779585248225
  0.0209416619690188  0.8124071854756778  0.9081304276616962
  0.9120526285470305  0.6343953422607527  0.6141566775502056
  0.6163183379671082  0.2080105920724193  0.5237278859651013
  0.8032481316834392  0.2976908904287754  0.4223770087654799
  0.8642978308774545  0.8843286777903288  0.0901992941274870
  0.6842316959593902  0.5909775054791737  0.9853675317023658
  0.1013032198055939  0.4922804385569606  0.6875988751225037
  0.3926762838726674  0.5919811801461066  0.8620339463863331
  0.8061604606355530  0.9116787075566961  0.8094379602405226
  0.7269864348562933  0.0281886306896908  0.6340239830600680
  0.4168683280647656  0.3065654012307277  0.7980227673809281
  0.5123390121315694  0.1140758764471244  0.6996167468984993
  0.9789200308326471  0.1877082616364234  0.0917599698946177
  0.0878690712011334  0.3653814567733491  0.3857694225292292
 
  0.00000000E+00  0.00000000E+00  0.00000000E+00
  0.00000000E+00  0.00000000E+00  0.00000000E+00
  0.00000000E+00  0.00000000E+00  0.00000000E+00
  0.00000000E+00  0.00000000E+00  0.00000000E+00
  0.00000000E+00  0.00000000E+00  0.00000000E+00
  0.00000000E+00  0.00000000E+00  0.00000000E+00
  0.00000000E+00  0.00000000E+00  0.00000000E+00
  0.00000000E+00  0.00000000E+00  0.00000000E+00
  0.00000000E+00  0.00000000E+00  0.00000000E+00
  0.00000000E+00  0.00000000E+00  0.00000000E+00
  0.00000000E+00  0.00000000E+00  0.00000000E+00
  0.00000000E+00  0.00000000E+00  0.00000000E+00
  0.00000000E+00  0.00000000E+00  0.00000000E+00
  0.00000000E+00  0.00000000E+00  0.00000000E+00
  0.00000000E+00  0.00000000E+00  0.00000000E+00
  0.00000000E+00  0.00000000E+00  0.00000000E+00
  0.00000000E+00  0.00000000E+00  0.00000000E+00
  0.00000000E+00  0.00000000E+00  0.00000000E+00
  0.00000000E+00  0.00000000E+00  0.00000000E+00
  0.00000000E+00  0.00000000E+00  0.00000000E+00
  0.00000000E+00  0.00000000E+00  0.00000000E+00
  0.00000000E+00  0.00000000E+00  0.00000000E+00
  0.00000000E+00  0.00000000E+00  0.00000000E+00
  0.00000000E+00  0.00000000E+00  0.00000000E+00
  0.00000000E+00  0.00000000E+00  0.00000000E+00
  0.00000000E+00  0.00000000E+00  0.00000000E+00
  0.00000000E+00  0.00000000E+00  0.00000000E+00
  0.00000000E+00  0.00000000E+00  0.00000000E+00
  0.00000000E+00  0.00000000E+00  0.00000000E+00
  0.00000000E+00  0.00000000E+00  0.00000000E+00
  0.00000000E+00  0.00000000E+00  0.00000000E+00
  0.00000000E+00  0.00000000E+00  0.00000000E+00
  0.00000000E+00  0.00000000E+00  0.00000000E+00
  0.00000000E+00  0.00000000E+00  0.00000000E+00
  0.00000000E+00  0.00000000E+00  0.00000000E+00
  0.00000000E+00  0.00000000E+00  0.00000000E+00
  0.00000000E+00  0.00000000E+00  0.00000000E+00
  0.00000000E+00  0.00000000E+00  0.00000000E+00
  0.00000000E+00  0.00000000E+00  0.00000000E+00
  0.00000000E+00  0.00000000E+00  0.00000000E+00
  0.00000000E+00  0.00000000E+00  0.00000000E+00
  0.00000000E+00  0.00000000E+00  0.00000000E+00
  0.00000000E+00  0.00000000E+00  0.00000000E+00
  0.00000000E+00  0.00000000E+00  0.00000000E+00
  0.00000000E+00  0.00000000E+00  0.00000000E+00
  0.00000000E+00  0.00000000E+00  0.00000000E+00
  0.00000000E+00  0.00000000E+00  0.00000000E+00
  0.00000000E+00  0.00000000E+00  0.00000000E+00
  0.00000000E+00  0.00000000E+00  0.00000000E+00
  0.00000000E+00  0.00000000E+00  0.00000000E+00
  0.00000000E+00  0.00000000E+00  0.00000000E+00
  0.00000000E+00  0.00000000E+00  0.00000000E+00
  0.00000000E+00  0.00000000E+00  0.00000000E+00
  0.00000000E+00  0.00000000E+00  0.00000000E+00
  0.00000000E+00  0.00000000E+00  0.00000000E+00
  0.00000000E+00  0.00000000E+00  0.00000000E+00
  0.00000000E+00  0.00000000E+00  0.00000000E+00
  0.00000000E+00  0.00000000E+00  0.00000000E+00
  0.00000000E+00  0.00000000E+00  0.00000000E+00
  0.00000000E+00  0.00000000E+00  0.00000000E+00
  0.00000000E+00  0.00000000E+00  0.00000000E+00
  0.00000000E+00  0.00000000E+00  0.00000000E+00
  0.00000000E+00  0.00000000E+00  0.00000000E+00
  0.00000000E+00  0.00000000E+00  0.00000000E+00
  0.00000000E+00  0.00000000E+00  0.00000000E+00
  0.00000000E+00  0.00000000E+00  0.00000000E+00
  0.00000000E+00  0.00000000E+00  0.00000000E+00
  0.00000000E+00  0.00000000E+00  0.00000000E+00
  0.00000000E+00  0.00000000E+00  0.00000000E+00
  0.00000000E+00  0.00000000E+00  0.00000000E+00
  0.00000000E+00  0.00000000E+00  0.00000000E+00
  0.00000000E+00  0.00000000E+00  0.00000000E+00
  0.00000000E+00  0.00000000E+00  0.00000000E+00
  0.00000000E+00  0.00000000E+00  0.00000000E+00
  0.00000000E+00  0.00000000E+00  0.00000000E+00
  0.00000000E+00  0.00000000E+00  0.00000000E+00
  0.00000000E+00  0.00000000E+00  0.00000000E+00
  0.00000000E+00  0.00000000E+00  0.00000000E+00
  0.00000000E+00  0.00000000E+00  0.00000000E+00
  0.00000000E+00  0.00000000E+00  0.00000000E+00
