Ca1 Co4 P6 O24
1.0
2.579243 7.098927 4.394814
0.163666 0.219785 8.749251
7.443199 0.170521 4.442937
Ca Co P O
1 4 6 24
direct
0.250381 0.880057 0.612066 Ca
0.650936 0.635398 0.641013 Co
0.135340 0.145080 0.137896 Co
0.849933 0.846715 0.851358 Co
0.365761 0.350429 0.353364 Co
0.241061 0.535103 0.965196 P
0.034180 0.745549 0.470847 P
0.954501 0.248368 0.526065 P
0.467302 0.024348 0.745736 P
0.541625 0.970217 0.232526 P
0.748054 0.466975 0.037109 P
0.581969 0.785935 0.405929 O
0.310643 0.045815 0.937480 O
0.410138 0.570297 0.775079 O
0.927280 0.287540 0.038186 O
0.787748 0.423242 0.568888 O
0.063283 0.922149 0.293119 O
0.930668 0.064768 0.700025 O
0.583517 0.430032 0.226680 O
0.691718 0.961726 0.040078 O
0.202960 0.567656 0.433532 O
0.067937 0.723302 0.938142 O
0.421823 0.217113 0.583623 O
0.212695 0.363147 0.995561 O
0.849719 0.733778 0.510019 O
0.962915 0.242957 0.348914 O
0.456054 0.875239 0.713856 O
0.338904 1.000758 0.261350 O
0.693921 0.515139 0.871347 O
0.281279 0.497296 0.134823 O
0.034793 0.753141 0.644320 O
0.146963 0.238742 0.498419 O
0.664203 -0.024727 0.737835 O
0.523885 0.136479 0.264925 O
0.779420 0.633209 0.016049 O
