Ca2 Fe4 S6 O24                          
   1.00000000000000     
     7.6387409999999996    0.0196070000000000    4.4208840000000000
     2.5458569999999998    7.0919949999999998    4.4033550000000004
     0.0578440000000000    0.0032710000000000    8.8091729999999995
   Ca   Fe   S    O 
     2     4     6    24
Direct
  0.2931003834431864  0.7413812704016733  0.5541666262252010
  0.9734917440638486  0.0352147540119967  0.9843253070849948
  0.6631224056351221  0.6206630372605004  0.6609759406713458
  0.1546759288610538  0.1446792106372278  0.1402251203046203
  0.8241372899867463  0.8589274271689372  0.8491276282226468
  0.3533441708945547  0.3618115166063574  0.3528521612570141
  0.9625239117957618  0.2447663813927955  0.5441230820008655
  0.4484629728084735  0.0351916324874417  0.7564475925382496
  0.5474036085007467  0.9629081413468322  0.2441974072950839
  0.7526144754677835  0.4427849487488087  0.0426457234687598
  0.2463482493515454  0.5521249938626720  0.9605581598684432
  0.0352891618765162  0.7520779936236198  0.4367281559804983
  0.4213798177260697  0.5430640384451346  0.7949579724651253
  0.8913883676097825  0.2608898976851818  0.1136517226064660
  0.7938599590647455  0.4096057564444662  0.5379851907572495
  0.0669460201320209  0.8987266840515943  0.2513376667747302
  0.5476062145393235  0.8289948598588940  0.4349137445608062
  0.2546179000511790  0.0869159192428624  0.8934303275497631
  0.7319532021789718  0.9010807387644095  0.1065086441580723
  0.2171650620812589  0.5979734976331652  0.4459824898062362
  0.1106185655824211  0.7419368696279411  0.8874308190228957
  0.4533533634265009  0.1745153153192526  0.5711997403548073
  0.9179943587172349  0.0898276771470857  0.7270361068854260
  0.5744576721235720  0.4714675766790953  0.1923191399985650
  0.0306346781101367  0.1727492463172033  0.3953145968728123
  0.4948598153315821  0.8458051312354163  0.7621940199151851
  0.3979350183686898  0.9498938873166192  0.2228545339111902
  0.7434970336046401  0.4201401271096993  0.8917225867017099
  0.1851355613470526  0.4041362632941915  0.0052728981775761
  0.8975836415766905  0.6872207327641283  0.4688286312021659
  0.1109643469002650  0.2796996072147497  0.5396873810177247
  0.5739300043574018  0.0361716643532209  0.8178252587869430
  0.5116857753904951  0.1524274569679707  0.2238032885049746
  0.8195316194200716  0.5981536143683576  0.9675111860945480
  0.2643439289520947  0.5480323921241901  0.1171825549138083
  0.9812772128868854  0.8288632011872596  0.5799276908220935
 
             NaN             NaN             NaN
             NaN             NaN             NaN
             NaN             NaN             NaN
             NaN             NaN             NaN
             NaN             NaN             NaN
             NaN             NaN             NaN
             NaN             NaN             NaN
             NaN             NaN             NaN
             NaN             NaN             NaN
             NaN             NaN             NaN
             NaN             NaN             NaN
             NaN             NaN             NaN
             NaN             NaN             NaN
             NaN             NaN             NaN
             NaN             NaN             NaN
             NaN             NaN             NaN
             NaN             NaN             NaN
             NaN             NaN             NaN
             NaN             NaN             NaN
             NaN             NaN             NaN
             NaN             NaN             NaN
             NaN             NaN             NaN
             NaN             NaN             NaN
             NaN             NaN             NaN
             NaN             NaN             NaN
             NaN             NaN             NaN
             NaN             NaN             NaN
             NaN             NaN             NaN
             NaN             NaN             NaN
             NaN             NaN             NaN
             NaN             NaN             NaN
             NaN             NaN             NaN
             NaN             NaN             NaN
             NaN             NaN             NaN
             NaN             NaN             NaN
             NaN             NaN             NaN
