Ca2 Fe4 S6 O24                          
   1.00000000000000     
     7.6387409999999996    0.0196070000000000    4.4208840000000000
     2.5458569999999998    7.0919949999999998    4.4033550000000004
     0.0578440000000000    0.0032710000000000    8.8091729999999995
   Ca   Fe   S    O 
     2     4     6    24
Direct
  0.2928606001711991  0.7385585729698950  0.5555934909504514
  0.9759961954980950  0.0294834835531695 -0.0152883782833803
  0.6619355308769369  0.6231922551161280  0.6606043065146602
  0.1512387892653408  0.1455299278965711  0.1428488650444037
  0.8267607742673583  0.8576196451632955  0.8479846831121256
  0.3554197642252013  0.3620668760348343  0.3523151348201379
  0.9621929275132829  0.2444284806866799  0.5419672014512507
  0.4440249090772780  0.0417262972488292  0.7542050917121055
  0.5501143197728376  0.9588303610666188  0.2463085236916820
  0.7516491071544728  0.4440811686652791  0.0431186195872209
  0.2489154928229084  0.5502509010316931  0.9616678428530511
  0.0352100314006826  0.7522173644176245  0.4367468250957486
  0.4212058275800478  0.5430983435781988  0.7935879384994947
  0.8909492268182088  0.2589912882467664  0.1089604659342019
  0.7923531154006895  0.4077200325306922  0.5453739304710559
  0.0648735508799012  0.8993678202270449  0.2513739105583832
  0.5579639855970426  0.8090177990223936  0.4288229221030293
  0.2525408750653914  0.0855916424447380  0.8967585004934888
  0.7296596542013650  0.9061766658549152  0.0993775868188543
  0.2176001698624301  0.5991437692056814  0.4444896223607830
  0.1101019827796309  0.7388385319352304  0.8920254624022775
  0.4455302341743658  0.1970914911264160  0.5779131809358315
  0.9247157279610315  0.0854999196435395  0.7237526168525114
  0.5760649777962487  0.4734673942881071  0.1956847758563348
  1.0189102684980635  0.1786612117208563  0.3923542584622109
  0.4856367481985119  0.8631854715659101  0.7397152529457193
  0.3927843728822343  0.9598178312890379  0.2250849370934311
  0.7332977437369469  0.4293703929339834  0.8935268821427749
  0.1893203415891137  0.4002629350794888  1.0088764270361537
  0.8981322161222288  0.6857621526049774  0.4703051461531895
  0.1156137596626550  0.2770688962116389  0.5303649785264027
  0.5740521302817240  1.0246087169050240  0.8229010251279445
  0.5215578999455538  0.1390647172986033  0.2426948760895189
  0.8244786660602833  0.5953540288124775 -0.0312750565108581
  0.2715470460126230  0.5466404664577176  0.1152108512383994
 -0.0180975756787138  0.8292349860506685  0.5793448520133816
 
             NaN             NaN             NaN
             NaN             NaN             NaN
             NaN             NaN             NaN
             NaN             NaN             NaN
             NaN             NaN             NaN
             NaN             NaN             NaN
             NaN             NaN             NaN
             NaN             NaN             NaN
             NaN             NaN             NaN
             NaN             NaN             NaN
             NaN             NaN             NaN
             NaN             NaN             NaN
             NaN             NaN             NaN
             NaN             NaN             NaN
             NaN             NaN             NaN
             NaN             NaN             NaN
             NaN             NaN             NaN
             NaN             NaN             NaN
             NaN             NaN             NaN
             NaN             NaN             NaN
             NaN             NaN             NaN
             NaN             NaN             NaN
             NaN             NaN             NaN
             NaN             NaN             NaN
             NaN             NaN             NaN
             NaN             NaN             NaN
             NaN             NaN             NaN
             NaN             NaN             NaN
             NaN             NaN             NaN
             NaN             NaN             NaN
             NaN             NaN             NaN
             NaN             NaN             NaN
             NaN             NaN             NaN
             NaN             NaN             NaN
             NaN             NaN             NaN
             NaN             NaN             NaN
