Ca1 V4 P6 O24                           
   1.00000000000000     
     2.5803680000000000    6.9795280000000002    4.4890290000000004
     0.2452090000000000    0.1605650000000000    8.7140409999999999
     7.4395429999999996    0.1387960000000000    4.5181839999999998
   Ca   V    P    O 
     1     4     6    24
Direct
  0.3210040870253025  0.6869414565999246  0.5344771223550333
  0.6547641088232999  0.6331060156751307  0.6439793296994129
  0.1391873314121238  0.1483218365392445  0.1411773287905322
  0.8422078879036037  0.8576657923968026  0.8581237878451196
  0.3522787243813983  0.3511145519045809  0.3650362999956722
  0.2502104958223649  0.5210847078066202  0.9725671554289490
  0.0178467431818247  0.7543825397800991  0.4535544151601747
  0.9688834769613223  0.2466998842502827  0.5286047754503891
  0.4599677109396818  0.0363161583133998  0.7502064341943041
  0.5392857675186749  0.9644059593581061  0.2481572529502869
  0.7424253658986348  0.4744294305373756  0.0405079135373128
  0.5830341182981418  0.7648177803079862  0.4154677235644548
  0.2981989119257719  0.0304793824595497  0.9448492955527873
  0.4127794501720948  0.5785339116800354  0.7824143601680368
  0.9409362995968317  0.3161781535663981  0.0313741023698752
  0.7729127069556481  0.3925948122370422  0.6032945740995994
  0.0255766339846963  0.9569766442696908  0.3052041806033448
  0.9873352363079482  0.0374026640948196  0.6684152267249832
  0.5811136216323285  0.4101595763011264  0.2224634600187659
  0.7073689329313460  0.9642943756701897  0.0576647205054795
  0.2232068881089015  0.6052342925550990  0.4006495434366474
  0.0605172114793175  0.6813963308206407  0.9395868023628152
  0.4089862557134854  0.2387800702548538  0.5954786773769399
  0.2659581418144652  0.3297682450648847  0.9866863785586187
  0.8730162327941678  0.7086948282098872  0.4567568704983173
  0.9931827040920602  0.2735132331790789  0.3294773527387417
  0.5062080996375186  0.8766179313122309  0.6930074117178269
  0.3523992588052309  0.9748192992384402  0.2555234798416530
  0.7120318721130285  0.5125945570539803  0.8613576324569253
  0.2713837435384920  0.5038717613936905  0.1408892683683329
 -0.0150268224105678  0.7391073660283332  0.6518795609055342
  0.1314955873649727  0.2888493235385222  0.5096268424935655
  0.6457303649914979  1.0114629955738963  0.7618197963784787
  0.5019435198594646  0.1234749263688126  0.2995847792506329
  0.7249693264219592  0.6608797513760545  0.0330028396868946
 
             NaN             NaN             NaN
             NaN             NaN             NaN
             NaN             NaN             NaN
             NaN             NaN             NaN
             NaN             NaN             NaN
             NaN             NaN             NaN
             NaN             NaN             NaN
             NaN             NaN             NaN
             NaN             NaN             NaN
             NaN             NaN             NaN
             NaN             NaN             NaN
             NaN             NaN             NaN
             NaN             NaN             NaN
             NaN             NaN             NaN
             NaN             NaN             NaN
             NaN             NaN             NaN
             NaN             NaN             NaN
             NaN             NaN             NaN
             NaN             NaN             NaN
             NaN             NaN             NaN
             NaN             NaN             NaN
             NaN             NaN             NaN
             NaN             NaN             NaN
             NaN             NaN             NaN
             NaN             NaN             NaN
             NaN             NaN             NaN
             NaN             NaN             NaN
             NaN             NaN             NaN
             NaN             NaN             NaN
             NaN             NaN             NaN
             NaN             NaN             NaN
             NaN             NaN             NaN
             NaN             NaN             NaN
             NaN             NaN             NaN
             NaN             NaN             NaN
