Ca1 Co4 S6 O24
1.0
7.553692 0.097884 4.496343
2.622463 7.048953 4.494579
0.200411 0.100690 8.769098
Ca Co S O
1 4 6 24
direct
0.280525 0.834038 0.595314 Ca
0.648226 0.641219 0.653363 Co
0.139217 0.143002 0.144212 Co
0.843905 0.843662 0.850190 Co
0.358658 0.353328 0.348249 Co
0.957703 0.252398 0.524607 S
0.452005 0.037981 0.747029 S
0.543484 0.963595 0.243018 S
0.747347 0.447142 0.045838 S
0.246954 0.536292 0.955933 S
0.040399 0.748602 0.458788 S
0.405854 0.572536 0.770342 O
0.912381 0.274453 0.059384 O
0.809247 0.425599 0.551778 O
0.072912 0.906336 0.283853 O
0.583254 0.783459 0.403258 O
0.308973 0.043685 0.935113 O
0.685937 0.946584 0.061159 O
0.192807 0.570796 0.440000 O
0.080046 0.711957 0.932926 O
0.404701 0.221955 0.599800 O
0.931047 0.084396 0.696753 O
0.583904 0.423228 0.225593 O
0.963112 0.234726 0.364582 O
0.451004 0.888339 0.714407 O
0.351254 0.996140 0.261406 O
0.699258 0.484244 0.890102 O
0.215889 0.376291 0.982772 O
0.857798 0.743617 0.511524 O
0.145745 0.243853 0.487827 O
0.639647 -0.010748 0.742599 O
0.536454 0.118570 0.269106 O
0.782389 0.607280 0.015050 O
0.288563 0.507900 0.109898 O
0.042351 0.772834 0.613799 O
