Ca2 Ni2 P4 O14
1.0
6.433000 0.000000 0.000000
0.285096 6.529779 0.000000
0.827826 2.574615 5.927165
Ca Ni P O
2 2 4 14
direct
0.128940 0.802760 0.732550 Ca
0.871060 0.197240 0.267450 Ca
0.353440 0.222430 0.900090 Ni
0.646560 0.777570 0.099910 Ni
0.625290 0.671880 0.638400 P
0.374710 0.328120 0.361600 P
0.140220 0.746730 0.229130 P
0.859780 0.253270 0.770870 P
0.060000 0.865300 0.376700 O
0.940000 0.134700 0.623300 O
0.323100 0.866500 0.048200 O
0.676900 0.133500 0.951800 O
0.729000 0.746500 0.792000 O
0.271000 0.253500 0.208000 O
0.380300 0.156800 0.600800 O
0.619700 0.843200 0.399200 O
0.587600 0.438400 0.252400 O
0.412400 0.561600 0.747600 O
0.971500 0.697500 0.110500 O
0.028500 0.302500 0.889500 O
0.773800 0.480000 0.604400 O
0.226200 0.520000 0.395600 O
