Ca1 Fe4 S6 O24                          
   1.00000000000000     
     7.5877460000000001    0.1642460000000000    4.5226600000000001
     2.6407389999999999    7.1103079999999999    4.5476140000000003
     0.2324860000000000    0.1927630000000000    8.8358580000000000
   Ca   Fe   S    O 
     1     4     6    24
Direct
  0.2587933161213938  0.8028297604897408  0.5632707600960298
  0.6601428749263835  0.6362204343877549  0.6455013894264364
  0.1411361437413637  0.1540002940754082  0.1319199003010856
  0.8319973247908415  0.8429723477233014  0.8587653335703365
  0.3581474732629026  0.3479370795976310  0.3581112903197411
  0.9650025422196833  0.2501187230592298  0.5210989924524887
  0.4472530994281224  0.0299635128060841  0.7518556499362951
  0.5504039954720790  0.9679439943604251  0.2403609110099673
  0.7436923707959715  0.4555041355470298  0.0549405193143547
  0.2559251004281570  0.5292678397198380  0.9518245190761602
  0.0384214507402312  0.7397996931589078  0.4592847913045788
  0.4202342174127827  0.5681226423955322  0.7728403862536020
  0.9234368134494108  0.2928032623653664  0.0425566549132713
  0.7879551740406374  0.3807506817926178  0.6076355830116696
  0.0385841373933461  0.9353704559752231  0.3418926914678957
  0.5848882637488112  0.7773822982968606  0.3951752234582930
  0.3099577533617139  0.0120173243059892  0.9479347127118336
  0.6958113058063896  0.9642613118039134  0.0555257885030303
  0.2289088862713304  0.6075939962102140  0.3905993516275499
  0.0904596160994909  0.7052860398154894  0.9160342359953679
  0.3839470176932792  0.2234053947600350  0.6194649028803764
  0.9742283377840590  0.0484803264703847  0.6473359698345206
  0.5959208321405729  0.4010759978091989  0.2380665038389291
  0.9776118353090112  0.2854167920199241  0.3337104098887233
  0.4651372736105109  0.8884931695603379  0.6972793669563361
  0.3589900229835445  0.0097382120807144  0.2474213213971620
  0.6887789002704470  0.5147849505878841  0.8968127553462617
  0.2387032828822622  0.3686524976746665  0.9623760843080073
  0.8903735834152596  0.7115206446229819  0.4603085508599931
  0.1303025733299542  0.2666781631555983  0.5051236902720002
  0.6351380003970106  0.9919160086885862  0.7432915836720391
  0.5395053596913554  0.1095713106168334  0.2850615769973782
  0.7635608397426493  0.6148288820803306  0.0469936726844416
  0.2837163342943654  0.4936330913852462  0.1162767325029741
  0.0088697821366468  0.7048460158414155  0.6566021272981369
 
             NaN             NaN             NaN
             NaN             NaN             NaN
             NaN             NaN             NaN
             NaN             NaN             NaN
             NaN             NaN             NaN
             NaN             NaN             NaN
             NaN             NaN             NaN
             NaN             NaN             NaN
             NaN             NaN             NaN
             NaN             NaN             NaN
             NaN             NaN             NaN
             NaN             NaN             NaN
             NaN             NaN             NaN
             NaN             NaN             NaN
             NaN             NaN             NaN
             NaN             NaN             NaN
             NaN             NaN             NaN
             NaN             NaN             NaN
             NaN             NaN             NaN
             NaN             NaN             NaN
             NaN             NaN             NaN
             NaN             NaN             NaN
             NaN             NaN             NaN
             NaN             NaN             NaN
             NaN             NaN             NaN
             NaN             NaN             NaN
             NaN             NaN             NaN
             NaN             NaN             NaN
             NaN             NaN             NaN
             NaN             NaN             NaN
             NaN             NaN             NaN
             NaN             NaN             NaN
             NaN             NaN             NaN
             NaN             NaN             NaN
             NaN             NaN             NaN
