Ca1 Fe4 S6 O24                          
   1.00000000000000     
     7.5877460000000001    0.1642460000000000    4.5226600000000001
     2.6407389999999999    7.1103079999999999    4.5476140000000003
     0.2324860000000000    0.1927630000000000    8.8358580000000000
   Ca   Fe   S    O 
     1     4     6    24
Direct
  0.2588033638485458  0.8028258220735019  0.5632377171124053
  0.6600880978245925  0.6362262635053094  0.6455861639269596
  0.1410674597950847  0.1540334787545785  0.1319507176762220
  0.8319547025606103  0.8429861007221172  0.8587919824771338
  0.3581456742788663  0.3479239347948247  0.3581469393568026
  0.9650364566129777  0.2500683107574695  0.5211065566356575
  0.4472062650262569  0.0300255803943947  0.7518323125847440
  0.5503785428576344  0.9679892253655631  0.2403860325146398
  0.7436513471066051  0.4555273874316543  0.0549881680701653
  0.2559392009530555  0.5292035946687662  0.9518976488818287
  0.0384742500318511  0.7397632309480430  0.4592767182294312
  0.4201927120223863  0.5681081170409589  0.7728874561014681
  0.9234421425818554  0.2927836337761450  0.0425900813427911
  0.7880155284069496  0.3807121033864914  0.6076011779515726
  0.0386140064397605  0.9353415719406648  0.3418615543020075
  0.5848439389264551  0.7774289575390162  0.3951444969424638
  0.3099899320222645  0.0120296886776641  0.9478641690233243
  0.6957507245112110  0.9643328317999513  0.0555583623337034
  0.2289525894839229  0.6074879359888848  0.3905850058874696
  0.0904474693255387  0.7052890041527412  0.9160400845013830
  0.3839688146515573  0.2234217790983643  0.6193877424865094
  0.9743192659471208  0.0485328796125108  0.6472522625363193
  0.5958728318002470  0.4010238317392230  0.2380838306791984
  0.9776492126085752  0.2854067785613798  0.3337019512603272
  0.4650950260766339  0.8885829103065369  0.6972543030362693
  0.3589808384883419  0.0097666581684326  0.2474066688437202
  0.6887747408791025  0.5147030246153930  0.8968789416917909
  0.2387478333593703  0.3686522532668949  0.9623803032790594
  0.8904425488191635  0.7115054471865949  0.4602314359188974
  0.1304054565347181  0.2667322779578681  0.5050237127850342
  0.6351125773290440  0.9919591729574873  0.7433023301432498
  0.5393968267937186  0.1096701707895136  0.2850843488029496
  0.7635163981218429  0.6147234983039499  0.0470710950179736
  0.2837247881299749  0.4935985044997537  0.1163255491869515
  0.0089343232474815  0.7048212435723389  0.6565360926657589
 
             NaN             NaN             NaN
             NaN             NaN             NaN
             NaN             NaN             NaN
             NaN             NaN             NaN
             NaN             NaN             NaN
             NaN             NaN             NaN
             NaN             NaN             NaN
             NaN             NaN             NaN
             NaN             NaN             NaN
             NaN             NaN             NaN
             NaN             NaN             NaN
             NaN             NaN             NaN
             NaN             NaN             NaN
             NaN             NaN             NaN
             NaN             NaN             NaN
             NaN             NaN             NaN
             NaN             NaN             NaN
             NaN             NaN             NaN
             NaN             NaN             NaN
             NaN             NaN             NaN
             NaN             NaN             NaN
             NaN             NaN             NaN
             NaN             NaN             NaN
             NaN             NaN             NaN
             NaN             NaN             NaN
             NaN             NaN             NaN
             NaN             NaN             NaN
             NaN             NaN             NaN
             NaN             NaN             NaN
             NaN             NaN             NaN
             NaN             NaN             NaN
             NaN             NaN             NaN
             NaN             NaN             NaN
             NaN             NaN             NaN
             NaN             NaN             NaN
