Ca2 Fe4 S6 O24
1.0
7.674972 0.039005 4.478867
2.566127 7.060016 4.469269
0.061896 0.008000 8.849501
Ca Fe S O
2 4 6 24
direct
0.259756 0.866072 0.585528 Ca
0.967473 1.007452 1.018593 Ca
0.652177 0.642476 0.655051 Fe
0.138391 0.158102 0.140754 Fe
0.832711 0.849271 0.838410 Fe
0.367855 0.352476 0.351917 Fe
0.972819 0.240773 0.534747 S
0.424808 0.043454 0.754623 S
0.558629 0.962066 0.238668 S
0.743811 0.451657 0.048521 S
0.255162 0.546296 0.952028 S
0.031001 0.751063 0.451545 S
0.414222 0.562062 0.773082 O
0.884619 0.259599 0.099573 O
0.844985 0.427067 0.536219 O
0.094068 0.884933 0.262132 O
0.573397 0.790084 0.406920 O
0.238348 0.090273 0.900816 O
0.722341 0.920106 0.077105 O
0.151774 0.557250 0.464504 O
0.102906 0.738094 0.913487 O
0.441305 0.211304 0.590460 O
0.922646 0.090452 0.723425 O
0.574456 0.469688 0.208531 O
0.977650 0.191365 0.397067 O
0.431361 0.894709 0.712863 O
0.381672 1.007496 0.224215 O
0.713787 0.465737 0.892089 O
0.195763 0.401329 0.987934 O
0.838080 0.782126 0.492600 O
0.166210 0.210258 0.502176 O
0.569065 -0.031234 0.832289 O
0.563133 0.117889 0.255413 O
0.822788 0.591941 -0.009536 O
0.296523 0.518534 0.104026 O
0.036877 0.796198 0.589693 O
