Ca1 V4 P6 O24                           
   1.00000000000000     
     2.6230267807555641    6.9413449260114444    4.5262410578229595
     0.2945902481396195    0.1857521137581600    8.7211793520617942
     7.4217570606729106    0.1782540817896941    4.5549274417974459
   Ca   V    P    O 
     1     4     6    24
Direct
  0.5072092534695916  0.5076427490826010  0.4774752420459247
  0.6440025861323700  0.6459124637732168  0.6418226201082059
  0.1387628634738665  0.1404999039676684  0.1456080467426902
  0.8516607139033300  0.8501112083446293  0.8577970090455933
  0.3487310331724013  0.3503247070511953  0.3535315383868559
  0.2508065346994987  0.5258821909560303  0.9596170830182090
  0.0355842795370812  0.7444504181880957  0.4687843126197802
  0.9594614142437661  0.2485854888384093  0.5304595036960574
  0.4633742239916983  0.0323096413849991  0.7478253030539294
  0.5300292341220941  0.9624431506894069  0.2460382373765000
  0.7459677844207956  0.4665893567436140  0.0360046991564617
  0.6035191733387910  0.7589532791578649  0.3972313443340503
  0.3086110358458142  0.0207277202219466  0.9488366352818857
  0.3986035382514647  0.5916282902432219  0.7552750901872224
  0.9495228246973392  0.3127152430517615  0.0152114331886804
  0.7575390860231517  0.3980060262865873  0.6007523573768170
  0.0231744635332449  0.9529688854922519  0.3143580827654645
  0.9774812427929167  0.0443854003126324  0.6817931274049182
  0.5960852057282614  0.3907714472941735  0.2354131480146784
  0.6858545773302173  0.9803664006296244  0.0429206229915874
  0.2388777439619896  0.5998466119092936  0.3944520055435231
  0.0450570268346174  0.6811524092460376  0.9704079231974073
  0.4057451151698773  0.2386973762618803  0.5949116350516547
  0.2618055702902895  0.3305952228630116  0.9889834567066642
  0.8780410419491204  0.6997358569385970  0.4888851764094237
  0.9739168983088937  0.2726796569463923  0.3359610523081324
  0.4882879335462352  0.8818904534952607  0.6899199855882563
  0.3408870790352094  0.9699994283233970  0.2668562255532548
  0.6909090873881762  0.5084326837708635  0.8727040085009633
  0.2998289168326477  0.5041538976425000  0.1149344218819529
  0.0156335436340754  0.7231048211756316  0.6628536426243872
  0.1181075616071156  0.3039935736340711  0.4999044761138482
  0.6609895370784525  0.9998405825266127  0.7388993961890715
  0.4949028564989507  0.1194711390455945  0.3013606722071722
  0.7234290191566747  0.6535323145109313  0.0346104853288022
 
  0.00000000E+00  0.00000000E+00  0.00000000E+00
  0.00000000E+00  0.00000000E+00  0.00000000E+00
  0.00000000E+00  0.00000000E+00  0.00000000E+00
  0.00000000E+00  0.00000000E+00  0.00000000E+00
  0.00000000E+00  0.00000000E+00  0.00000000E+00
  0.00000000E+00  0.00000000E+00  0.00000000E+00
  0.00000000E+00  0.00000000E+00  0.00000000E+00
  0.00000000E+00  0.00000000E+00  0.00000000E+00
  0.00000000E+00  0.00000000E+00  0.00000000E+00
  0.00000000E+00  0.00000000E+00  0.00000000E+00
  0.00000000E+00  0.00000000E+00  0.00000000E+00
  0.00000000E+00  0.00000000E+00  0.00000000E+00
  0.00000000E+00  0.00000000E+00  0.00000000E+00
  0.00000000E+00  0.00000000E+00  0.00000000E+00
  0.00000000E+00  0.00000000E+00  0.00000000E+00
  0.00000000E+00  0.00000000E+00  0.00000000E+00
  0.00000000E+00  0.00000000E+00  0.00000000E+00
  0.00000000E+00  0.00000000E+00  0.00000000E+00
  0.00000000E+00  0.00000000E+00  0.00000000E+00
  0.00000000E+00  0.00000000E+00  0.00000000E+00
  0.00000000E+00  0.00000000E+00  0.00000000E+00
  0.00000000E+00  0.00000000E+00  0.00000000E+00
  0.00000000E+00  0.00000000E+00  0.00000000E+00
  0.00000000E+00  0.00000000E+00  0.00000000E+00
  0.00000000E+00  0.00000000E+00  0.00000000E+00
  0.00000000E+00  0.00000000E+00  0.00000000E+00
  0.00000000E+00  0.00000000E+00  0.00000000E+00
  0.00000000E+00  0.00000000E+00  0.00000000E+00
  0.00000000E+00  0.00000000E+00  0.00000000E+00
  0.00000000E+00  0.00000000E+00  0.00000000E+00
  0.00000000E+00  0.00000000E+00  0.00000000E+00
  0.00000000E+00  0.00000000E+00  0.00000000E+00
  0.00000000E+00  0.00000000E+00  0.00000000E+00
  0.00000000E+00  0.00000000E+00  0.00000000E+00
  0.00000000E+00  0.00000000E+00  0.00000000E+00
