Fe6 P3
1.0
5.864000 0.000000 0.000000
-2.932000 5.078373 0.000000
0.000000 0.000000 3.458000
Fe P
6 3
direct
0.743000 0.743000 0.000000 Fe0+
0.257000 0.000000 0.000000 Fe0+
0.000000 0.257000 0.000000 Fe0+
0.405000 0.405000 0.500000 Fe0+
0.595000 0.000000 0.500000 Fe0+
0.000000 0.595000 0.500000 Fe0+
0.666667 0.333333 0.000000 P0+
0.333333 0.666667 0.000000 P0+
0.000000 0.000000 0.500000 P0+
