Ca16 Ti12 O40                           
   1.00000000000000     
     5.4162263263389878   -0.0000002889748203    0.0000013635905120
    -0.0000013932967564   27.1385986545441682    0.0000007099843103
     0.0000013733309231    0.0000001545488868    5.4853313246342958
   Ca   Ti   O 
    16    12    40
Direct
  0.0064762178314959  0.4301304575947734  0.4566537222579605
  0.5064761595295476  0.5698695633709895  0.0433462251276919
  0.9936032293405990  0.0698729591256213  0.9566720839544051
  0.4936030888524687  0.9301271437089477  0.5433281347728657
  0.9936031413378775  0.5698729442347320  0.5433279940567393
  0.4936032351821055  0.4301270950946373  0.9566720320872221
  0.0064761222825540  0.9301304179963579  0.0433463726506692
  0.5064758218481734  0.0698695940481524  0.4566533246417591
  0.4921138692987239  0.2945204685068581  0.0381338202284541
  0.9921138718514015  0.7054795473955179  0.4618661560677553
  0.5078387976419415  0.2054826068881025  0.5381061892888931
  0.0078387494357588  0.7945174038690792  0.9618937744184888
  0.5078387945386849  0.7054826141518132  0.9618936813323775
  0.0078387879521512  0.2945174125065700  0.5381062182176467
  0.4921139397789160  0.7945204753200670  0.4618661794696508
  0.9921139198386961  0.2054795441387706  0.0381338253535461
  0.5000975130952080  0.5000046109058258  0.5000212979259656
  0.0000974628132452  0.4999953867486761 -0.0000215349631918
  0.5000969244246501  0.0000046101339173 -0.0000216684227234
  0.0000969608367917  0.9999953041346268  0.5000214246005389
  0.9992301269106206  0.3578307358694772  0.0003240611858433
  0.4992300791754246  0.6421692890216982  0.4996758762736405
  0.0007418986913392  0.1421660535406847  0.5003248902417787
  0.5007420579797605  0.8578340777226299  0.9996750500923853
  0.0007419619310347  0.6421660014494599  0.9996750560611589
  0.5007419721064814  0.3578340337610274  0.5003248976289405
  0.9992301932523426  0.8578306904800442  0.4996759053125585
  0.4992300676220321  0.1421692198580358  0.0003240091830600
  0.9239960516515469  0.4294396985614207  0.0191198904664202
  0.4239960378705883  0.5705603126946345  0.4808800295584767
  0.0760052668515449  0.0705620944644225  0.5191262724125371
  0.5760061415499047  0.9294376665449334  0.9808745103101754
  0.0760063100614766  0.5705622530796957  0.9808741946237399
  0.5760062977408571  0.4294377668090121  0.5191257330355327
  0.9239959048587092  0.9294397912014851  0.4808802399257890
  0.4239956238825061  0.0705604436949693  0.0191203660063144
  0.0656292094386764  0.2873942617142539  0.9784798876000156
  0.5656292577705011  0.7126057514750407  0.5215201163087669
  0.9343122137863251  0.2125999407080392  0.4784747674042110
  0.4343121453518728  0.7874000388064414  0.0215251107993892
  0.9343121838857883  0.7125999482031703  0.0215251023463053
  0.4343122041383646  0.2874000571720302  0.4784747772382393
  0.0656292366670150  0.7873942563293341  0.5215201409593109
  0.5656292436488873  0.2126057507053837  0.9784798685859128
  0.2088480309833622  0.3693776035040416  0.7073982014935483
  0.7088480807084662  0.6306224166906325  0.7926016879181758
  0.7910936976232971  0.1306191234106618  0.2074152690247273
  0.2910935176715686  0.8693808735052001  0.2925847549917385
  0.7910936231529311  0.6306191220925018  0.2925847047404728
  0.2910935866717687  0.3693808869018341  0.2074152758600899
  0.2088480082214125  0.8693775881692196  0.7926016724825078
  0.7088481300129776  0.1306224058945223  0.7073981746025524
  0.7907946911781540  0.3483722962061460  0.2881312470121900
  0.2907946489090399  0.6516277137808886  0.2118687624466225
  0.2091356023894465  0.1516293599221256  0.7881520427191986
  0.7091356655377707  0.8483706307426748  0.7118477283890599
  0.2091355970676978  0.6516293764832849  0.7118477468828439
  0.7091356529392520  0.3483706440437381  0.7881520987052461
  0.7907946869084930  0.8483722937960948  0.2118688227661416
  0.2907945646437068  0.1516277147032407  0.2881313361052769
  0.7075015536630684  0.5112917687572879  0.7920293551326002
  0.2075015579760988  0.4887082371584265  0.7079705796401189
  0.2925830421104231  0.9887103404116183  0.2920384744898153
  0.7925849466394821  0.0112897047078069  0.2079626015838779
  0.2925847081147417  0.4887103297346592  0.2079625071445383
  0.7925847630598903  0.5112896912288015  0.2920374869365678
  0.7074949049844678  0.0112913194008369  0.7079701414726602
  0.2074984442979052  0.9887082650124096  0.7920293208322339
 
  0.00000000E+00  0.00000000E+00  0.00000000E+00
  0.00000000E+00  0.00000000E+00  0.00000000E+00
  0.00000000E+00  0.00000000E+00  0.00000000E+00
  0.00000000E+00  0.00000000E+00  0.00000000E+00
  0.00000000E+00  0.00000000E+00  0.00000000E+00
  0.00000000E+00  0.00000000E+00  0.00000000E+00
  0.00000000E+00  0.00000000E+00  0.00000000E+00
  0.00000000E+00  0.00000000E+00  0.00000000E+00
  0.00000000E+00  0.00000000E+00  0.00000000E+00
  0.00000000E+00  0.00000000E+00  0.00000000E+00
  0.00000000E+00  0.00000000E+00  0.00000000E+00
  0.00000000E+00  0.00000000E+00  0.00000000E+00
  0.00000000E+00  0.00000000E+00  0.00000000E+00
  0.00000000E+00  0.00000000E+00  0.00000000E+00
  0.00000000E+00  0.00000000E+00  0.00000000E+00
  0.00000000E+00  0.00000000E+00  0.00000000E+00
  0.00000000E+00  0.00000000E+00  0.00000000E+00
  0.00000000E+00  0.00000000E+00  0.00000000E+00
  0.00000000E+00  0.00000000E+00  0.00000000E+00
  0.00000000E+00  0.00000000E+00  0.00000000E+00
  0.00000000E+00  0.00000000E+00  0.00000000E+00
  0.00000000E+00  0.00000000E+00  0.00000000E+00
  0.00000000E+00  0.00000000E+00  0.00000000E+00
  0.00000000E+00  0.00000000E+00  0.00000000E+00
  0.00000000E+00  0.00000000E+00  0.00000000E+00
  0.00000000E+00  0.00000000E+00  0.00000000E+00
  0.00000000E+00  0.00000000E+00  0.00000000E+00
  0.00000000E+00  0.00000000E+00  0.00000000E+00
  0.00000000E+00  0.00000000E+00  0.00000000E+00
  0.00000000E+00  0.00000000E+00  0.00000000E+00
  0.00000000E+00  0.00000000E+00  0.00000000E+00
  0.00000000E+00  0.00000000E+00  0.00000000E+00
  0.00000000E+00  0.00000000E+00  0.00000000E+00
  0.00000000E+00  0.00000000E+00  0.00000000E+00
  0.00000000E+00  0.00000000E+00  0.00000000E+00
  0.00000000E+00  0.00000000E+00  0.00000000E+00
  0.00000000E+00  0.00000000E+00  0.00000000E+00
  0.00000000E+00  0.00000000E+00  0.00000000E+00
  0.00000000E+00  0.00000000E+00  0.00000000E+00
  0.00000000E+00  0.00000000E+00  0.00000000E+00
  0.00000000E+00  0.00000000E+00  0.00000000E+00
  0.00000000E+00  0.00000000E+00  0.00000000E+00
  0.00000000E+00  0.00000000E+00  0.00000000E+00
  0.00000000E+00  0.00000000E+00  0.00000000E+00
  0.00000000E+00  0.00000000E+00  0.00000000E+00
  0.00000000E+00  0.00000000E+00  0.00000000E+00
  0.00000000E+00  0.00000000E+00  0.00000000E+00
  0.00000000E+00  0.00000000E+00  0.00000000E+00
  0.00000000E+00  0.00000000E+00  0.00000000E+00
  0.00000000E+00  0.00000000E+00  0.00000000E+00
  0.00000000E+00  0.00000000E+00  0.00000000E+00
  0.00000000E+00  0.00000000E+00  0.00000000E+00
  0.00000000E+00  0.00000000E+00  0.00000000E+00
  0.00000000E+00  0.00000000E+00  0.00000000E+00
  0.00000000E+00  0.00000000E+00  0.00000000E+00
  0.00000000E+00  0.00000000E+00  0.00000000E+00
  0.00000000E+00  0.00000000E+00  0.00000000E+00
  0.00000000E+00  0.00000000E+00  0.00000000E+00
  0.00000000E+00  0.00000000E+00  0.00000000E+00
  0.00000000E+00  0.00000000E+00  0.00000000E+00
  0.00000000E+00  0.00000000E+00  0.00000000E+00
  0.00000000E+00  0.00000000E+00  0.00000000E+00
  0.00000000E+00  0.00000000E+00  0.00000000E+00
  0.00000000E+00  0.00000000E+00  0.00000000E+00
  0.00000000E+00  0.00000000E+00  0.00000000E+00
  0.00000000E+00  0.00000000E+00  0.00000000E+00
  0.00000000E+00  0.00000000E+00  0.00000000E+00
  0.00000000E+00  0.00000000E+00  0.00000000E+00
