Ca1 Fe4 S6 O24                          
   1.00000000000000     
     7.6064569999999998    0.1270440000000000    4.4708730000000001
     2.6034809999999999    7.1459630000000001    4.5098690000000001
     0.1709760000000000    0.1655870000000000    8.8278669999999995
   Ca   Fe   S    O 
     1     4     6    24
Direct
  0.2512050125548713  0.8711876803837880  0.6053006849036104
  0.6578777837464406  0.6369256519379572  0.6475879324660562
  0.1384478674784904  0.1476833116388040  0.1352774289875438
  0.8389444493142413  0.8385495263589738  0.8549933521732186
  0.3642864059644826  0.3453409443626593  0.3509070764858675
  0.9574536659285893  0.2490190342987269  0.5230508149932636
  0.4484610650867258  0.0280097767371091  0.7471731327654523
  0.5467221009616728  0.9638260608927079  0.2419962063639891
  0.7483340292042701  0.4489535210703607  0.0491584166717413
  0.2541729148657141  0.5267809607080378  0.9536914747250289
  0.0481400753094511  0.7443980485842551  0.4577129903085690
  0.4150652053520233  0.5617052510990296  0.7740002131327710
  0.9188509476810436  0.2802583341583059  0.0407985007273709
  0.8062322054245831  0.4076832086195033  0.5776245744326559
  0.0610274221246943  0.9226231288204311  0.3003946223176479
  0.5823804458318623  0.7803490431362281  0.4006562628000875
  0.3097399971277344  0.0279823489492357  0.9345667452186089
  0.6856389479915832  0.9505203202565500  0.0601441262711591
  0.2090952228427448  0.5859321522905312  0.4056005530785927
  0.0927553914043067  0.7074869613962608  0.9293905052580295
  0.4011673198597742  0.2161850496229447  0.6034185645569045
  0.9320735311930678  0.0685970698559938  0.6788339802601859
  0.5969760693790610  0.4132585699673197  0.2303010991373828
  0.9621782796847740  0.2614667803846881  0.3492382155130098
  0.4448712560581578  0.8879424114715536  0.7043756194869281
  0.3528021693926847  0.0061385558027262  0.2563570976213576
  0.6845501806908219  0.5092703696898313  0.8956086831202731
  0.2172803907663512  0.3747919434493243  0.9712589780694802
  0.8703316989371077  0.7302683251222530  0.5061292409863337
  0.1450213898137149  0.2318427646451402  0.4989822400069318
  0.6391828963504829  0.9699008457039490  0.7413238371910100
  0.5451521406928163  0.1097829989464096  0.2745305174940890
  0.7922575025046148  0.6018710900534046  0.0238112261211934
  0.2957755410513521  0.4797863398051200  0.1148496352706567
  0.0528845912982362  0.7446995216738516  0.6236915470809322
 
             NaN             NaN             NaN
             NaN             NaN             NaN
             NaN             NaN             NaN
             NaN             NaN             NaN
             NaN             NaN             NaN
             NaN             NaN             NaN
             NaN             NaN             NaN
             NaN             NaN             NaN
             NaN             NaN             NaN
             NaN             NaN             NaN
             NaN             NaN             NaN
             NaN             NaN             NaN
             NaN             NaN             NaN
             NaN             NaN             NaN
             NaN             NaN             NaN
             NaN             NaN             NaN
             NaN             NaN             NaN
             NaN             NaN             NaN
             NaN             NaN             NaN
             NaN             NaN             NaN
             NaN             NaN             NaN
             NaN             NaN             NaN
             NaN             NaN             NaN
             NaN             NaN             NaN
             NaN             NaN             NaN
             NaN             NaN             NaN
             NaN             NaN             NaN
             NaN             NaN             NaN
             NaN             NaN             NaN
             NaN             NaN             NaN
             NaN             NaN             NaN
             NaN             NaN             NaN
             NaN             NaN             NaN
             NaN             NaN             NaN
             NaN             NaN             NaN
