Ca2 Ni4 S6 O24
1.0
7.542728 0.216822 4.515286
2.652461 7.030428 4.486298
0.168937 0.198748 8.793369
Ca Ni S O
2 4 6 24
direct
0.254385 0.867017 0.586884 Ca
0.961285 1.015478 1.019727 Ca
0.653513 0.647386 0.652129 Ni
0.136763 0.153402 0.142080 Ni
0.837123 0.845380 0.844050 Ni
0.365895 0.346839 0.348603 Ni
0.970144 0.250836 0.531425 S
0.430430 0.038784 0.752289 S
0.558762 0.963539 0.233725 S
0.741101 0.454388 0.050915 S
0.252281 0.538240 0.956185 S
0.034321 0.749786 0.454314 S
0.421490 0.555176 0.778220 O
0.877748 0.253141 0.120363 O
0.842244 0.445010 0.525815 O
0.106934 0.883625 0.259911 O
0.572388 0.793598 0.411112 O
0.235395 0.103713 0.892283 O
0.728955 0.911504 0.074059 O
0.159827 0.550497 0.474404 O
0.093989 0.736192 0.911860 O
0.461008 0.196826 0.571906 O
0.914247 0.101319 0.725399 O
0.554824 0.483499 0.201836 O
0.977095 0.201855 0.393153 O
0.431180 0.881481 0.728101 O
0.377430 1.008701 0.222842 O
0.733621 0.463227 0.882351 O
0.201075 0.391300 0.985599 O
0.837428 0.789098 0.486281 O
0.170250 0.210681 0.501673 O
0.574399 -0.038177 0.834713 O
0.565930 0.125670 0.236424 O
0.821767 0.588643 0.001426 O
0.277293 0.513083 0.118617 O
0.029973 0.797591 0.596618 O
