Ca4 V4 P6 O24
1.0
2.565509 7.260086 4.359832
-0.005191 0.043077 8.782352
7.665581 0.044824 4.282973
Ca V P O
4 4 6 24
direct
0.389864 0.679181 0.543430 Ca
0.963505 0.002990 0.021921 Ca
0.400810 0.744110 0.101383 Ca
0.127893 0.405824 0.743898 Ca
0.646814 0.635893 0.632538 V
0.145731 0.148018 0.150881 V
0.845041 0.859259 0.855779 V
0.351022 0.346417 0.351650 V
0.246933 0.555097 0.947283 P
0.038077 0.751789 0.449277 P
0.960962 0.249097 0.556638 P
0.453038 0.038746 0.742791 P
0.536188 0.943469 0.250759 P
0.747873 0.454957 0.036586 P
0.564208 0.761614 0.410253 O
0.261874 0.065192 0.907837 O
0.405262 0.573083 0.760373 O
0.921909 0.281622 0.047765 O
0.777930 0.408494 0.561922 O
0.070274 0.909812 0.264409 O
0.935191 0.086114 0.738803 O
0.582514 0.425347 0.213608 O
0.715983 0.941515 0.086353 O
0.229440 0.590099 0.421874 O
0.083976 0.740590 0.926632 O
0.426495 0.225131 0.588624 O
0.193586 0.397272 0.980894 O
0.881436 0.704563 0.481004 O
0.031686 0.182690 0.396426 O
0.476819 0.873337 0.707551 O
0.386197 0.953036 0.201561 O
0.716543 0.490495 0.865041 O
0.297378 0.528873 0.103652 O
0.013881 0.778589 0.620610 O
0.106958 0.303682 0.548017 O
0.604428 0.994643 0.804518 O
0.469148 0.105668 0.312601 O
0.769831 0.625454 0.017125 O
