Co6 S8                                  
   1.00000000000000     
    -4.8053279413978567   -4.8051640257500123    0.0002247793727174
    -4.8053215459058469    0.0002119681258591   -4.8068456690824828
     0.0002290630719396   -4.8051755155399398   -4.8068632728886147
   Co   S 
     6     8
Direct
  0.7500057611228053  0.7500041496935946  0.7499867112644482
 -0.0000109266791007  0.0000001353785783  0.0000160923498168
  0.8750089874217206  0.3749900616810451  0.3749995043153636
  0.3749928719358532  0.8750089514339859  0.3750000622227273
  0.3750012279905053  0.3750035956362662  0.8749859759851030
  0.3750037961063316  0.3749986863815825  0.3750113490620079
  0.1647688980096106  0.6117614691937762  0.6117684661713499
  0.6117611766836173  0.1647675470643922  0.6117010447453500
  0.6117085362330974  0.6117594474872254  0.1647664689142734
  0.6117612862522568  0.6117052576489734  0.6117665233924161
  0.5852093150278315  0.1382408135323804  0.1383012231861113
  0.1382391302185865  0.5852108668409141  0.1382488633183966
  0.1382377469879485  0.1383133913604998  0.5852060063041812
  0.1383121926889507  0.1382356266667858  0.1382417087684618
 
  0.00000000E+00  0.00000000E+00  0.00000000E+00
  0.00000000E+00  0.00000000E+00  0.00000000E+00
  0.00000000E+00  0.00000000E+00  0.00000000E+00
  0.00000000E+00  0.00000000E+00  0.00000000E+00
  0.00000000E+00  0.00000000E+00  0.00000000E+00
  0.00000000E+00  0.00000000E+00  0.00000000E+00
  0.00000000E+00  0.00000000E+00  0.00000000E+00
  0.00000000E+00  0.00000000E+00  0.00000000E+00
  0.00000000E+00  0.00000000E+00  0.00000000E+00
  0.00000000E+00  0.00000000E+00  0.00000000E+00
  0.00000000E+00  0.00000000E+00  0.00000000E+00
  0.00000000E+00  0.00000000E+00  0.00000000E+00
  0.00000000E+00  0.00000000E+00  0.00000000E+00
  0.00000000E+00  0.00000000E+00  0.00000000E+00
