Ca1 Fe4 S6 O24                          
   1.00000000000000     
     7.5971010000000003    0.1456450000000000    4.4967670000000002
     2.6221100000000002    7.1281350000000003    4.5287420000000003
     0.2017310000000000    0.1791750000000000    8.8318619999999992
   Ca   Fe   S    O 
     1     4     6    24
Direct
  0.2565187829989589  0.8454096185793786  0.5891993372939839
  0.6600230098748732  0.6365167765956343  0.6460248360040387
  0.1381510578376841  0.1518877828110884  0.1335480366048076
  0.8338433072359832  0.8413999841785615  0.8563722122604702
  0.3598151998247106  0.3454203146318803  0.3585569061852411
  0.9600519583577580  0.2500151732443737  0.5211686865185706
  0.4422631286285705  0.0263247630724414  0.7502095100976166
  0.5513287822332017  0.9666075591032083  0.2388998132205370
  0.7457287272964005  0.4554060047406316  0.0523033294167608
  0.2570743972693156  0.5251947556436948  0.9534281862991492
  0.0453364757644214  0.7420422854181060  0.4592574483197420
  0.4208439487100530  0.5603590144380717  0.7747165881680425
  0.9217705518203808  0.2910200490925196  0.0367384283120775
  0.7960267057816698  0.3902413418516581  0.6005645205869264
  0.0476969265304897  0.9346704713737070  0.3305014089642329
  0.5883719229009172  0.7779648096342014  0.3941533139450274
  0.3041939698451505  0.0180288441917015  0.9416726689870900
  0.6932836205478697  0.9610486709641008  0.0544388651440654
  0.2223704650113512  0.6021622140056972  0.3878302915600729
  0.0944775373258848  0.7048425098618961  0.9236012492587233
  0.3901602596023965  0.2194947853302899  0.6125738335775969
  0.9492781998443535  0.0561994758943849  0.6560196916018370
  0.5971773726422396  0.4061823655611067  0.2336478929779000
  0.9685223922223810  0.2841199558709243  0.3369266428494305
  0.4447461964405901  0.8902602900495326  0.6980613609223572
  0.3589914553038088  0.0084543341696940  0.2495419582749375
  0.6853637095245058  0.5230486479274002  0.8942026671935157
  0.2292706405931768  0.3696235865304249  0.9665978691837240
  0.8818363184868772  0.7222477809426170  0.4788818372774035
  0.1397099158792378  0.2406418788105604  0.5057530434101423
  0.6333980625568683  0.9716277704879087  0.7434440126220163
  0.5442375585957245  0.1092663673595707  0.2803339117006748
  0.7773543400557036  0.6093718295963306  0.0410961416291849
  0.2920606642159834  0.4817682044994855  0.1171210879065616
  0.0345191388780145  0.7145326186281241  0.6459177924030045
 
             NaN             NaN             NaN
             NaN             NaN             NaN
             NaN             NaN             NaN
             NaN             NaN             NaN
             NaN             NaN             NaN
             NaN             NaN             NaN
             NaN             NaN             NaN
             NaN             NaN             NaN
             NaN             NaN             NaN
             NaN             NaN             NaN
             NaN             NaN             NaN
             NaN             NaN             NaN
             NaN             NaN             NaN
             NaN             NaN             NaN
             NaN             NaN             NaN
             NaN             NaN             NaN
             NaN             NaN             NaN
             NaN             NaN             NaN
             NaN             NaN             NaN
             NaN             NaN             NaN
             NaN             NaN             NaN
             NaN             NaN             NaN
             NaN             NaN             NaN
             NaN             NaN             NaN
             NaN             NaN             NaN
             NaN             NaN             NaN
             NaN             NaN             NaN
             NaN             NaN             NaN
             NaN             NaN             NaN
             NaN             NaN             NaN
             NaN             NaN             NaN
             NaN             NaN             NaN
             NaN             NaN             NaN
             NaN             NaN             NaN
             NaN             NaN             NaN
