Ca1 Fe4 S6 O24                          
   1.00000000000000     
     7.5971010000000003    0.1456450000000000    4.4967670000000002
     2.6221100000000002    7.1281350000000003    4.5287420000000003
     0.2017310000000000    0.1791750000000000    8.8318619999999992
   Ca   Fe   S    O 
     1     4     6    24
Direct
  0.2565155412500337  0.8454128462537136  0.5892058317445686
  0.6599633941463261  0.6365273679802890  0.6460826392381361
  0.1381851056563723  0.1518859243824889  0.1335415126474682
  0.8338807794819852  0.8414602157787605  0.8563424798928306
  0.3595992478720902  0.3453838552029367  0.3586257684561276
  0.9600646137361778  0.2500057686705175  0.5211755985403212
  0.4422755225137774  0.0263224391117847  0.7502022506831726
  0.5513209879450806  0.9666029967982067  0.2388937717417239
  0.7457530674070780  0.4554178740135437  0.0522396541584300
  0.2570737138631971  0.5252009589132184  0.9534158449859015
  0.0453363580299138  0.7420565968021249  0.4592565680473774
  0.4208548481503245  0.5603734969160047  0.7747006844441889
  0.9217835925046028  0.2910120678052191  0.0367429119709232
  0.7960359740183488  0.3902112256852436  0.6005577076013208
  0.0476855751125205  0.9346878141214173  0.3304903166527973
  0.5883778468536789  0.7779769376975488  0.3941602441760120
  0.3041842528477039  0.0180251544161322  0.9416785586868907
  0.6932774689048716  0.9610324219110659  0.0544468050899328
  0.2224025193422622  0.6021637153443784  0.3878219311227031
  0.0944714195653702  0.7048351590115525  0.9235991190162735
  0.3901680523355060  0.2194988719092680  0.6125577068144477
  0.9492796223144000  0.0561931393980444  0.6560065463140917
  0.5972023212151099  0.4061746729598080  0.2336745217370326
  0.9685199273776552  0.2841078030816641  0.3369314267505698
  0.4447804451615301  0.8902418681877509  0.6980567649056734
  0.3589800257217124  0.0084471027982374  0.2495539927648623
  0.6853800284987168  0.5230339575303433  0.8942063678588272
  0.2292686909919308  0.3696273989395854  0.9665902574621842
  0.8818471681376877  0.7222537921261543  0.4788736984066655
  0.1397438952521648  0.2406495898347527  0.5057305598713185
  0.6333949357533205  0.9716252724411488  0.7434503305394353
  0.5442600545306436  0.1092710726893882  0.2803298573788899
  0.7773524203555625  0.6093701988068585  0.0411273335172142
  0.2920623638787890  0.4817734541454425  0.1171241572113535
  0.0345135683430305  0.7145418973007228  0.6459121600113019
 
             NaN             NaN             NaN
             NaN             NaN             NaN
             NaN             NaN             NaN
             NaN             NaN             NaN
             NaN             NaN             NaN
             NaN             NaN             NaN
             NaN             NaN             NaN
             NaN             NaN             NaN
             NaN             NaN             NaN
             NaN             NaN             NaN
             NaN             NaN             NaN
             NaN             NaN             NaN
             NaN             NaN             NaN
             NaN             NaN             NaN
             NaN             NaN             NaN
             NaN             NaN             NaN
             NaN             NaN             NaN
             NaN             NaN             NaN
             NaN             NaN             NaN
             NaN             NaN             NaN
             NaN             NaN             NaN
             NaN             NaN             NaN
             NaN             NaN             NaN
             NaN             NaN             NaN
             NaN             NaN             NaN
             NaN             NaN             NaN
             NaN             NaN             NaN
             NaN             NaN             NaN
             NaN             NaN             NaN
             NaN             NaN             NaN
             NaN             NaN             NaN
             NaN             NaN             NaN
             NaN             NaN             NaN
             NaN             NaN             NaN
             NaN             NaN             NaN
