Cr12 P12 O42                            
   1.00000000000000     
     0.0006851431472360   -8.3630184757824448    0.0002002603485751
     0.0534779495212199    0.0002119468150001   -9.2564028617399483
     9.9989000755091695    4.1806917079738435    1.1922249263865374
   Cr   P    O 
    12    12    42
Direct
  0.0103013955848112  0.3104702481277357  0.6434908409693421
  0.6327887546235615  0.8106749999583016  0.6432761894879562
  0.9896794076169400  0.6895843068091878  0.3565535231817663
  0.3672884712389219  0.1893433078694073  0.3567600043734984
  0.6976141318512390  0.0203001820732354  0.0185901592890971
  0.3210340212930305  0.5218576776293844  0.0187853762625778
  0.3024458028706576  0.9797173465631346  0.9814484057322233
  0.6788678227502842  0.4781796853579294  0.9812517409203281
  0.3502982483679631  0.6598091594993605  0.3276941782332372
  0.9779123745070279  0.1601243477600107  0.3278697541746780
  0.6496852904441965  0.3402006517567528  0.6723106997760055
  0.0221826217928012  0.8399967021277561  0.6721860596236837
  0.7495212498634132  0.5313905661636724  0.4660803512146217
  0.7166639990164541  0.0314073218233162  0.4661080840969163
  0.2504638681071114  0.4686098388680833  0.5339009235669820
  0.2833537343175792  0.9685901997312385  0.5338759607689241
  0.4070688049549815  0.1781488757063130  0.7888173314469995
  0.3817194950136553  0.6782651192446707  0.7887947251130925
  0.5929274789428121  0.8218442264710859  0.2111703720649203
  0.6182717866131355  0.3217284558933713  0.2111878216143950
  0.0812434866881375  0.3538886735027376  0.1263014629002939
  0.0452966120243516  0.8539421026293113  0.1261579688933665
  0.9187238556704713  0.6461024711670902  0.8736897006580122
  0.9547106670915753  0.1460505016712332  0.8738380941093880
  0.7882173761106301  0.4218462986878819  0.5692570726077335
  0.7808328907981874  0.9217247613671375  0.5691531254323792
  0.2117809120697629  0.5781484952929148  0.4307292297992689
  0.2191852098984128  0.0782767722843403  0.4308432657827126
  0.4574604178833468  0.0936456909881969  0.9115138475356517
  0.4542415011449563  0.5937580154849229  0.9114858505248407
  0.5425324706912704  0.9063309471861274  0.0884665245430583
  0.5457166247015408  0.4062312596538717  0.0884992336946056
  0.1129961303682663  0.7589816112612127  0.2419563840450678
  0.1297422036407454  0.2589770919272638  0.2421377999775558
  0.8870228115557026  0.2409891441671519  0.7580286211174538
  0.8702416571514462  0.7409987986277713  0.7578501362955166
  0.7297324264697025  0.4425053562191721  0.3281972651442473
  0.5984150003345974  0.9425121959573701  0.3282317657144986
  0.2702601777169633  0.5574867924474702  0.6717890665585244
  0.4015782549965365  0.0574819881019266  0.6717587796213920
  0.0821689250690341  0.2499099285000597  0.0000439235423002
  0.9178240789330090  0.7500924538839300  0.9999504080716406
  0.9039531252388002  0.6336556728623961  0.4948972040990824
  0.5912320534618161  0.1337388465924860  0.4950727629321747
  0.0960348235515056  0.3663404625007800  0.5050787209214818
  0.4087721006820715  0.8662506530416962  0.5049113675614549
  0.5497798037715000  0.2875688372803467  0.8044604833066558
  0.2544532318261687  0.7875749520996180  0.8042364272352103
  0.4502289004533608  0.7124142971339111  0.1955252482158372
  0.7455279033385338  0.2124115650132694  0.1957434673346725
  0.1912920714488422  0.9141258153779503  0.0976972259047031
  0.9067594259962277  0.4138830547834118  0.0980630870061958
  0.8087282481460463  0.0858564705970721  0.9023103336678915
  0.0932154185037035  0.5861016239623140  0.9019457221814875
  0.8681746677910667  0.1083866568867222  0.4547913069631946
  0.5867455086956213  0.6084855619985277  0.4547424565477982
  0.1318406646270205  0.8916082236557656  0.5452027876798340
  0.4132513622588974  0.3915034856022004  0.5452699433198518
  0.5228143976778981  0.7411101912728881  0.7566514366364743
  0.2338615474930918  0.2409796898575038  0.7566593359741702
  0.4771948359299643  0.2588863567040747  0.2433578718188159
  0.7661398877767098  0.7590139510628049  0.2433498981938982
  0.2245705720102720  0.4666709339702848  0.1508905867444099
  0.9265861212893043  0.9666000012187368  0.1509917336437212
  0.7754151562908049  0.5333162250503847  0.8491125498370025
  0.0734157209615631  0.0333919010318340  0.8490060137932289
 
  0.00000000E+00  0.00000000E+00  0.00000000E+00
  0.00000000E+00  0.00000000E+00  0.00000000E+00
  0.00000000E+00  0.00000000E+00  0.00000000E+00
  0.00000000E+00  0.00000000E+00  0.00000000E+00
  0.00000000E+00  0.00000000E+00  0.00000000E+00
  0.00000000E+00  0.00000000E+00  0.00000000E+00
  0.00000000E+00  0.00000000E+00  0.00000000E+00
  0.00000000E+00  0.00000000E+00  0.00000000E+00
  0.00000000E+00  0.00000000E+00  0.00000000E+00
  0.00000000E+00  0.00000000E+00  0.00000000E+00
  0.00000000E+00  0.00000000E+00  0.00000000E+00
  0.00000000E+00  0.00000000E+00  0.00000000E+00
  0.00000000E+00  0.00000000E+00  0.00000000E+00
  0.00000000E+00  0.00000000E+00  0.00000000E+00
  0.00000000E+00  0.00000000E+00  0.00000000E+00
  0.00000000E+00  0.00000000E+00  0.00000000E+00
  0.00000000E+00  0.00000000E+00  0.00000000E+00
  0.00000000E+00  0.00000000E+00  0.00000000E+00
  0.00000000E+00  0.00000000E+00  0.00000000E+00
  0.00000000E+00  0.00000000E+00  0.00000000E+00
  0.00000000E+00  0.00000000E+00  0.00000000E+00
  0.00000000E+00  0.00000000E+00  0.00000000E+00
  0.00000000E+00  0.00000000E+00  0.00000000E+00
  0.00000000E+00  0.00000000E+00  0.00000000E+00
  0.00000000E+00  0.00000000E+00  0.00000000E+00
  0.00000000E+00  0.00000000E+00  0.00000000E+00
  0.00000000E+00  0.00000000E+00  0.00000000E+00
  0.00000000E+00  0.00000000E+00  0.00000000E+00
  0.00000000E+00  0.00000000E+00  0.00000000E+00
  0.00000000E+00  0.00000000E+00  0.00000000E+00
  0.00000000E+00  0.00000000E+00  0.00000000E+00
  0.00000000E+00  0.00000000E+00  0.00000000E+00
  0.00000000E+00  0.00000000E+00  0.00000000E+00
  0.00000000E+00  0.00000000E+00  0.00000000E+00
  0.00000000E+00  0.00000000E+00  0.00000000E+00
  0.00000000E+00  0.00000000E+00  0.00000000E+00
  0.00000000E+00  0.00000000E+00  0.00000000E+00
  0.00000000E+00  0.00000000E+00  0.00000000E+00
  0.00000000E+00  0.00000000E+00  0.00000000E+00
  0.00000000E+00  0.00000000E+00  0.00000000E+00
  0.00000000E+00  0.00000000E+00  0.00000000E+00
  0.00000000E+00  0.00000000E+00  0.00000000E+00
  0.00000000E+00  0.00000000E+00  0.00000000E+00
  0.00000000E+00  0.00000000E+00  0.00000000E+00
  0.00000000E+00  0.00000000E+00  0.00000000E+00
  0.00000000E+00  0.00000000E+00  0.00000000E+00
  0.00000000E+00  0.00000000E+00  0.00000000E+00
  0.00000000E+00  0.00000000E+00  0.00000000E+00
  0.00000000E+00  0.00000000E+00  0.00000000E+00
  0.00000000E+00  0.00000000E+00  0.00000000E+00
  0.00000000E+00  0.00000000E+00  0.00000000E+00
  0.00000000E+00  0.00000000E+00  0.00000000E+00
  0.00000000E+00  0.00000000E+00  0.00000000E+00
  0.00000000E+00  0.00000000E+00  0.00000000E+00
  0.00000000E+00  0.00000000E+00  0.00000000E+00
  0.00000000E+00  0.00000000E+00  0.00000000E+00
  0.00000000E+00  0.00000000E+00  0.00000000E+00
  0.00000000E+00  0.00000000E+00  0.00000000E+00
  0.00000000E+00  0.00000000E+00  0.00000000E+00
  0.00000000E+00  0.00000000E+00  0.00000000E+00
  0.00000000E+00  0.00000000E+00  0.00000000E+00
  0.00000000E+00  0.00000000E+00  0.00000000E+00
  0.00000000E+00  0.00000000E+00  0.00000000E+00
  0.00000000E+00  0.00000000E+00  0.00000000E+00
  0.00000000E+00  0.00000000E+00  0.00000000E+00
  0.00000000E+00  0.00000000E+00  0.00000000E+00
