Cr12 P12 O42
1.0
-0.000000 -8.407300 -0.000000
0.000000 0.000000 -9.278800
10.011160 4.203650 1.249251
Cr P O
12 12 42
direct
0.010459 0.310853 0.643660 Cr2+
0.633201 0.810853 0.643660 Cr2+
0.989541 0.689147 0.356340 Cr2+
0.366799 0.189147 0.356340 Cr2+
0.697775 0.021658 0.019344 Cr2+
0.321569 0.521658 0.019344 Cr2+
0.302225 0.978342 0.980656 Cr2+
0.678431 0.478342 0.980656 Cr2+
0.349718 0.661009 0.328490 Cr2+
0.978772 0.161009 0.328490 Cr2+
0.650282 0.338991 0.671510 Cr2+
0.021228 0.838991 0.671510 Cr2+
0.750034 0.531883 0.467260 P5+
0.717226 0.031883 0.467260 P5+
0.249966 0.468117 0.532740 P5+
0.282774 0.968117 0.532740 P5+
0.407537 0.178538 0.789750 P5+
0.382213 0.678538 0.789750 P5+
0.592463 0.821462 0.210250 P5+
0.617787 0.321462 0.210250 P5+
0.081668 0.354448 0.127400 P5+
0.045732 0.854448 0.127400 P5+
0.918332 0.645552 0.872600 P5+
0.954268 0.145552 0.872600 P5+
0.788774 0.422623 0.569092 O2-
0.780318 0.922623 0.569092 O2-
0.211226 0.577377 0.430908 O2-
0.219682 0.077377 0.430908 O2-
0.457384 0.094334 0.911632 O2-
0.454248 0.594334 0.911632 O2-
0.542616 0.905666 0.088368 O2-
0.545752 0.405666 0.088368 O2-
0.112587 0.759264 0.241938 O2-
0.129351 0.259264 0.241938 O2-
0.887413 0.240736 0.758062 O2-
0.870649 0.740736 0.758062 O2-
0.731010 0.442769 0.328036 O2-
0.597026 0.942769 0.328036 O2-
0.268990 0.557231 0.671964 O2-
0.402974 0.057231 0.671964 O2-
0.083281 0.250000 0.000000 O2-
0.916719 0.750000 0.000000 O2-
0.904221 0.635026 0.496666 O2-
0.592445 0.135026 0.496666 O2-
0.095779 0.364974 0.503334 O2-
0.407555 0.864974 0.503334 O2-
0.549694 0.287776 0.805374 O2-
0.255680 0.787776 0.805374 O2-
0.450306 0.712224 0.194626 O2-
0.744320 0.212224 0.194626 O2-
0.191362 0.915101 0.099506 O2-
0.908144 0.415101 0.099506 O2-
0.808638 0.084899 0.900494 O2-
0.091856 0.584899 0.900494 O2-
0.868509 0.108720 0.456302 O2-
0.587793 0.608720 0.456302 O2-
0.131491 0.891280 0.543698 O2-
0.412207 0.391280 0.543698 O2-
0.522563 0.741611 0.757816 O2-
0.235253 0.241611 0.757816 O2-
0.477437 0.258389 0.242184 O2-
0.764747 0.758389 0.242184 O2-
0.225373 0.467710 0.153204 O2-
0.927831 0.967710 0.153204 O2-
0.774627 0.532290 0.846796 O2-
0.072169 0.032290 0.846796 O2-
