Iron - delta, HT                        
   1.00000000000000     
     2.9502767914864285    0.0000008258830036    0.0000014201271644
     0.0000008263326872    2.9502666962979300    0.0000012430965835
     0.0000014214964425    0.0000012451846721    2.9505967611905870
   Fe
     2
Direct
 -0.0000000015156515  0.0000000014018218  0.0000000038079915
  0.5000000015156515  0.4999999985981783  0.4999999961920085
 
  0.00000000E+00  0.00000000E+00  0.00000000E+00
  0.00000000E+00  0.00000000E+00  0.00000000E+00
