Ca2 Co4 S6 O24
1.0
7.718754 0.059986 4.418162
2.781225 6.953819 4.609327
0.349451 -0.049877 8.875265
Ca Co S O
2 4 6 24
direct
0.260905 0.862556 0.588525 Ca
0.954473 1.021626 1.018929 Ca
0.656737 0.642757 0.657177 Co
0.136709 0.154163 0.142776 Co
0.838132 0.849155 0.838440 Co
0.368692 0.348346 0.347959 Co
0.975427 0.247256 0.531079 S
0.425403 0.038914 0.752622 S
0.560288 0.960709 0.234155 S
0.741245 0.452645 0.049542 S
0.252348 0.540146 0.957797 S
0.031620 0.753894 0.454605 S
0.419820 0.554383 0.781200 O
0.875181 0.255694 0.121524 O
0.849365 0.438977 0.530623 O
0.093862 0.889324 0.261288 O
0.577899 0.790288 0.406422 O
0.233259 0.097933 0.895297 O
0.725816 0.914172 0.070661 O
0.158447 0.558235 0.469837 O
0.097554 0.736158 0.914910 O
0.449615 0.201878 0.579028 O
0.923136 0.097214 0.722534 O
0.557592 0.487694 0.198792 O
0.976225 0.203088 0.394083 O
0.428111 0.886497 0.720571 O
0.379172 1.007564 0.225715 O
0.730344 0.450627 0.889948 O
0.197745 0.394774 0.990131 O
0.835074 0.786775 0.499164 O
0.174110 0.208634 0.495943 O
0.570424 -0.040815 0.831376 O
0.569492 0.119292 0.239882 O
0.822808 0.590532 -0.012955 O
0.282355 0.512997 0.116477 O
0.033095 0.803986 0.591050 O
