Ca1 Cr4 P6 O24                          
   1.00000000000000     
     2.6437279999999999    6.9212759999999998    4.4869420000000000
     0.3444200000000000    0.1730660000000000    8.6476190000000006
     7.4074830000000000    0.1845130000000000    4.4377969999999998
   Ca   Cr   P    O 
     1     4     6    24
Direct
  0.2898413806593499  0.7184437154185138  0.5509561600337158
  0.6582828509953426  0.6292858487204326  0.6376947621757429
  0.1425631210349367  0.1529954089414803  0.1361837586197398
  0.8382305030383086  0.8552628775196053  0.8574596983584886
  0.3529362218658590  0.3520212418716222  0.3676345339382888
  0.2517249726671873  0.5169352409486161  0.9765284681262852
  0.0169159156303468  0.7535347721969949  0.4523086849506921
  0.9729722102653299  0.2445075104131692  0.5282950083676652
  0.4641864410720746  0.0326369108513934  0.7501015525315461
  0.5394219690076103  0.9644795757244164  0.2454352929000790
  0.7427317056989559  0.4752601691054500  0.0369180288448801
  0.5815667389808429  0.7619214222919184  0.4132039913427007
  0.2983064505296255  0.0205654750199081  0.9480259356324974
  0.4118294308129545  0.5864178851299503  0.7854768371110320
  0.9508012264595933  0.3229094609871761  0.0268330385759712
  0.7678588690293467  0.3871435866957899  0.6098109159797862
  0.0187126138097977  0.9617354579719922  0.3144350308383148
  0.9960136758366164  0.0283282619342253  0.6623648733978090
  0.5886728932811806  0.3998715112110628  0.2252996989105602
  0.7115780637184108  0.9646760541518525  0.0504291445174065
  0.2293669539309952  0.6066228140518460  0.4029896738241266
  0.0589885079145867  0.6713576689869123  0.9443343182676441
  0.4035476783309683  0.2371527187890954  0.5953137498853952
  0.2844618807356517  0.3212242403887291  0.9799601677675723
  0.8808605885205381  0.7031262169273805  0.4464247988610371
  0.9989853846851661  0.2821254577690752  0.3229400463005409
  0.5237728747654657  0.8710909715133824  0.6852674896991456
  0.3513226220010630  0.9772411928881237  0.2506210301662359
  0.7199293007453731  0.5053197426963498  0.8588063485931245
  0.2693945483221015  0.4989661752491828  0.1497417375210667
 -0.0304605042236100  0.7336353536509501  0.6621433130761184
  0.1260871408839849  0.2891058099609613  0.5199273010706845
  0.6443339115242002  0.0261916301947027  0.7543691297307928
  0.5010743614766349  0.1228124761008146  0.2993550879669089
  0.7127223383344873  0.6679777882361477  0.0323565817149229
 
             NaN             NaN             NaN
             NaN             NaN             NaN
             NaN             NaN             NaN
             NaN             NaN             NaN
             NaN             NaN             NaN
             NaN             NaN             NaN
             NaN             NaN             NaN
             NaN             NaN             NaN
             NaN             NaN             NaN
             NaN             NaN             NaN
             NaN             NaN             NaN
             NaN             NaN             NaN
             NaN             NaN             NaN
             NaN             NaN             NaN
             NaN             NaN             NaN
             NaN             NaN             NaN
             NaN             NaN             NaN
             NaN             NaN             NaN
             NaN             NaN             NaN
             NaN             NaN             NaN
             NaN             NaN             NaN
             NaN             NaN             NaN
             NaN             NaN             NaN
             NaN             NaN             NaN
             NaN             NaN             NaN
             NaN             NaN             NaN
             NaN             NaN             NaN
             NaN             NaN             NaN
             NaN             NaN             NaN
             NaN             NaN             NaN
             NaN             NaN             NaN
             NaN             NaN             NaN
             NaN             NaN             NaN
             NaN             NaN             NaN
             NaN             NaN             NaN
