Ca1 Cr4 P6 O24
1.0
2.643728 6.921276 4.486942
0.344420 0.173066 8.647619
7.407483 0.184513 4.437797
Ca Cr P O
1 4 6 24
direct
0.393129 0.644657 0.549832 Ca
0.644798 0.639765 0.644903 Cr
0.141610 0.142519 0.141667 Cr
0.853132 0.849588 0.851960 Cr
0.355444 0.351597 0.353337 Cr
0.247341 0.528654 0.963404 P
0.034265 0.747609 0.465619 P
0.959418 0.251181 0.524977 P
0.466130 0.030504 0.747736 P
0.531758 0.967053 0.244590 P
0.747791 0.461366 0.035376 P
0.591344 0.768478 0.404791 O
0.312824 0.026326 0.952235 O
0.401037 0.593357 0.762264 O
0.947592 0.302061 0.024546 O
0.766311 0.408453 0.583899 O
0.029656 0.945174 0.302268 O
0.961455 0.049677 0.684931 O
0.592409 0.408467 0.236272 O
0.684679 0.970753 0.044354 O
0.226641 0.587429 0.402758 O
0.050026 0.694439 0.967858 O
0.400368 0.230825 0.593349 O
0.252758 0.344046 0.978225 O
0.865208 0.706585 0.506828 O
0.978551 0.260761 0.333802 O
0.481242 0.871620 0.708007 O
0.332223 0.987596 0.270082 O
0.695157 0.488780 0.877053 O
0.298343 0.495328 0.124406 O
0.033246 0.734991 0.649284 O
0.129328 0.277434 0.501051 O
0.662260 0.005184 0.729139 O
0.510765 0.127817 0.288276 O
0.747203 0.652613 0.004433 O
