Fe4 P2 O10
1.0
5.336000 -0.000000 -0.000000
0.000000 5.336000 0.000000
-2.668000 -2.668000 6.228500
Fe P O
4 2 10
direct
1.000000 0.500000 0.500000 Fe2.5+
0.500000 0.000000 0.000000 Fe2.5+
0.500000 0.500000 0.000000 Fe2.5+
0.500000 0.500000 0.500000 Fe2.5+
0.125000 0.875000 0.250000 P5+
0.875000 0.125000 0.750000 P5+
0.187500 0.192500 0.885000 O2-
0.192500 0.187500 0.385000 O2-
0.192500 0.697500 0.385000 O2-
0.697500 0.192500 0.885000 O2-
0.812500 0.807500 0.115000 O2-
0.807500 0.812500 0.615000 O2-
0.807500 0.302500 0.615000 O2-
0.302500 0.807500 0.115000 O2-
0.375000 0.625000 0.750000 O2-
0.625000 0.375000 0.250000 O2-
