Ca4 Mn4 P6 O24                          
   1.00000000000000     
     2.6483469999999998    7.5982440000000002    4.3596450000000004
    -0.0228070000000000    0.1540570000000000    8.6242850000000004
     7.6625940000000003    0.2092150000000000    4.1881919999999999
   Ca   Mn   P    O 
     4     4     6    24
Direct
  0.2599894654218280  0.8541324995850835  0.5966527975089535
  0.9209288082433232  0.9930481109390458  0.0583795534721769
  0.3842288271456115  0.7362865098741035  0.1041516591134178
  0.1472694587536150  0.3873728244553974  0.7541857530908619
  0.6424984551423819  0.6387620567518119  0.6375300671992006
  0.1528723347875885  0.1430451905179588  0.1659987073032541
  0.8436687664877415  0.8607868953726576  0.8278960412566846
  0.3576611469612511  0.3192626645462650  0.3556262926881522
  0.2494289449150124  0.5459723172552747  0.9575840150616628
  0.0339791147037252  0.7607874223626635  0.4461031333765912
  0.9567021438572573  0.2433920291886993  0.5801193992265741
  0.4508136629332787  0.0304050372805880  0.7386293886292571
  0.5594197634339699  0.9154989610886926  0.2420436052105685
  0.7554237945497615  0.4794283466836318  0.0046604464553132
  0.5732082488288688  0.7520103723167838  0.4202770692604888
  0.2719291689152635  0.0597472133082576  0.9078336846559794
  0.4006174590203132  0.5566799076977497  0.7676569049028271
  0.8969494444179249  0.2853609570470210  1.0085790405384227
  0.7927409491220974  0.4146594637806716  0.5781074822717504
  0.0743526318534320  0.9079630616468376  0.2519880728596713
  0.9065676521808165  0.0783768478311880  0.7602622360357445
  0.6169547183528662  0.4999358582779320  0.1904671796938279
  0.7314561681207719  0.8678500348992469  0.0790954533234971
  0.2077881135395444  0.5904461122223577  0.4381655670189037
  0.1058434632646240  0.7434927499631856  0.9268630150487737
  0.4369109322812054  0.2143298541024571  0.5826468278300221
  0.1828504425286771  0.3933928281571049  0.9996592834481771
  0.8688156786188432  0.7275609704058830  0.4931872633424604
  0.0356422160716014  0.1779578477173869  0.4140063715987011
  0.4577985136165754  0.8741518378855343  0.6913892125102898
  0.3899483234272912  0.9338752190538538  0.2282977353579485
  0.6482726775603278  0.5435854129382003  0.8809928937018540
  0.2987710610139149  0.5103266710527974  0.1179511172382211
  0.0163847219744605  0.8291867120059253  0.5926760882034228
  0.1107428980795157  0.2628350701312128  0.5893942019359468
  0.6030226752043293  0.9564629318461148  0.8054399286126874
  0.5441952096567132  0.0943761868208280  0.2530130814808675
  0.8738092039116608  0.6059974430696289  0.9026624836735184
 
             NaN             NaN             NaN
             NaN             NaN             NaN
             NaN             NaN             NaN
             NaN             NaN             NaN
             NaN             NaN             NaN
             NaN             NaN             NaN
             NaN             NaN             NaN
             NaN             NaN             NaN
             NaN             NaN             NaN
             NaN             NaN             NaN
             NaN             NaN             NaN
             NaN             NaN             NaN
             NaN             NaN             NaN
             NaN             NaN             NaN
             NaN             NaN             NaN
             NaN             NaN             NaN
             NaN             NaN             NaN
             NaN             NaN             NaN
             NaN             NaN             NaN
             NaN             NaN             NaN
             NaN             NaN             NaN
             NaN             NaN             NaN
             NaN             NaN             NaN
             NaN             NaN             NaN
             NaN             NaN             NaN
             NaN             NaN             NaN
             NaN             NaN             NaN
             NaN             NaN             NaN
             NaN             NaN             NaN
             NaN             NaN             NaN
             NaN             NaN             NaN
             NaN             NaN             NaN
             NaN             NaN             NaN
             NaN             NaN             NaN
             NaN             NaN             NaN
             NaN             NaN             NaN
             NaN             NaN             NaN
             NaN             NaN             NaN
