Ca4 Mn4 P6 O24
1.0
2.648347 7.598244 4.359645
-0.022807 0.154057 8.624285
7.662594 0.209215 4.188192
Ca Mn P O
4 4 6 24
direct
0.287177 0.825767 0.595681 Ca
0.907475 0.991100 0.075983 Ca
0.376532 0.748441 0.104180 Ca
0.143044 0.394240 0.751177 Ca
0.634922 0.648776 0.635040 Mn
0.151924 0.152960 0.170460 Mn
0.843002 0.858873 0.833321 Mn
0.386154 0.329635 0.340359 Mn
0.245909 0.554241 0.956517 P
0.031252 0.766195 0.445583 P
0.951535 0.244126 0.586868 P
0.451293 0.040960 0.737432 P
0.556124 0.916832 0.245850 P
0.747502 0.479253 0.001279 P
0.565183 0.752049 0.424004 O
0.274167 0.068813 0.907405 O
0.390822 0.570936 0.762599 O
0.889341 0.288698 0.995705 O
0.790153 0.418063 0.585735 O
0.072402 0.919030 0.255200 O
0.899113 0.078688 0.767127 O
0.604975 0.483001 0.192072 O
0.727114 0.863118 0.085170 O
0.202059 0.593234 0.430584 O
0.098568 0.749455 0.939040 O
0.437738 0.227174 0.583571 O
0.177778 0.402436 -0.001916 O
0.862539 0.743133 0.484869 O
1.020676 0.179817 0.422705 O
0.457908 0.890190 0.683884 O
0.386564 0.945129 0.226725 O
0.640181 0.559264 0.874529 O
0.306676 0.510725 0.111256 O
0.018698 0.817144 0.601806 O
0.109846 0.255873 0.594091 O
0.604309 -0.033544 0.801556 O
0.553766 0.089997 0.256015 O
0.860753 0.605707 0.917924 O
