V16 P16 O72                             
   1.00000000000000     
     7.5010643488282511    0.0000003916123090   -0.0001791187223797
     0.0000003934288414    9.5961301125397487    0.0000013717253644
     0.0003935960611337    0.0000023803988524   16.6837950552535332
   V    P    O 
    16    16    72
Direct
  0.7110688117550172  0.5066408928559197  0.5956156950475746
  0.2888681458923992  0.4933308855328708  0.0956137259590258
  0.7888673174880688  0.5066685608613281  0.0956138043524289
  0.2110680186641369  0.4933585727267645  0.5956157002279019
  0.7153023745066617  0.4980205644793749  0.9049719552531160
  0.2847795923576641  0.5019704329240248  0.4049643058474707
  0.7847808790756740  0.4980289367414230  0.4049643026163285
  0.2153037014649240  0.5019789301348216  0.9049719352758264
  0.7126147098386582  0.0002215048310833  0.8451633738495896
  0.2873818445303898 -0.0002123491015713  0.3451680667808315
  0.7873816761214851  0.0002126182502822  0.3451678425291071
  0.2126132163406863  0.9997786991937397  0.8451636121961650
  0.7121519329194531 -0.0000267409022849  0.1550330281365537
  0.2878425175748359  0.0000382233873891  0.6550257373351378
  0.7878435740650593 -0.0000379304411751  0.6550255636950902
  0.2121515779980727  0.0000271045903399  0.1550333182298477
  0.6977836289885383  0.2931868334851780  0.7550844075405614
  0.3021803490237152  0.7068185669268898  0.2550823916104485
  0.8021805708602527  0.2931811047354783  0.2550821275887813
  0.1977837965968980  0.7068129620107337  0.7550847133748033
  0.7035322536875225  0.7093875239520367  0.2557874988543170
  0.2964823711644070  0.2906294350720756  0.7557825431731635
  0.7964828501647261  0.7093706978287729  0.7557821290376064
  0.2035326868635137  0.2906126018090585  0.2557878073981183
  0.7092305718745735  0.2056662767373286  0.5005445340344797
  0.2907656234673908  0.7943345238067226  0.0005357031901269
  0.7907649062452444  0.2056656117855566  0.0005353338139082
  0.2092300736064282  0.7943341712256865  0.5005449035843388
  0.7003591827593906  0.7991402366797988  0.0009898724703349
  0.2996690658460807  0.2008817243085536  0.5010028161475651
  0.7996678002011820  0.7991181418370124  0.5010027557005414
  0.2003576760783495  0.2008597652841488  0.0009899628929105
  0.4950196354525058  0.5316167670720334  0.5909600721396842
  0.5049342720023807  0.4684990174941538  0.0909405744672566
  0.0049346258139888  0.5315009552902177  0.0909405263557825
  0.9950202254026589  0.4683833599589413  0.5909608249630609
  0.4996416345891385  0.4681806772269487  0.9108643339024161
  0.5004063100128344  0.5319062246378786  0.4108645362675137
  0.0004055539976898  0.4680939703786589  0.4108644341410191
  0.9996407532578422  0.5318196017802249  0.9108644500866698
  0.5060057716961217  0.0110093733822948  0.3414520420207932
  0.4940181739445287  0.9886717722093648  0.8415167665637483
  0.9940206822092731  0.0113275229974382  0.8415171061294006
  0.0060082281175858  0.9889908884987696  0.3414517140500084
  0.4946100172391086  0.9773246100558336  0.1596534789585461
  0.5054082305835740  0.0225230811816056  0.6596762111052508
  0.0054071030162513  0.9774772044229103  0.6596761747551766
  0.9946101848465202  0.0226754637841502  0.1596534962039299
  0.5049587782884593  0.1689503559775884  0.5035367709471184
  0.4950436257750540  0.8310271145853301  0.0035239120368040
  0.9950432087134283  0.1689726043747773  0.0035229197397187
  0.0049580646901524  0.8310493494079561  0.5035377644610292
  0.5027289304980268  0.7129540463851488  0.2825771384438207
  0.4972656316335157  0.2870957359959355  0.7826144909913576
  0.9972656670965515  0.7129043270827956  0.7826145076326916
  0.0027290225760017  0.2870460381094555  0.2825771224342485
  0.7221096092267600  0.3667802997808799  0.5007184030420589
  0.2778389607356005  0.6332155679549293  0.0007287520874642
  0.7778384296383274  0.3667848718202227  0.0007280526335435
  0.2221089884595254  0.6332199913811070  0.5007190763184627
  0.7240222156915478  0.6389036241870870  0.0008585096325234
  0.2760226977940572  0.3611161021653569  0.5008689993842769
  0.7760224521107298  0.6388836800602011  0.5008690472472094
  0.2240219307088896  0.3610959895724655  0.0008584386852828
  0.7582205688914249  0.8644750167639771  0.2496074608804171
  0.2418782939769149  0.1355260468103591  0.7496053536647925
  0.7418781337902679  0.8644738219091173  0.7496053424488124
  0.2582204875881272  0.1355247378281260  0.2496074207514208
  0.7433479895451949  0.1385261677487589  0.2509275250606320
  0.2565542554496694  0.8614681805651236  0.7509312277641041
  0.7565541429849624  0.1385319686175806  0.7509311818837298
  0.2433476766157856  0.8614738646219444  0.2509275546130337
  0.7100139716565405  0.3581346594720793  0.6742145487706149
  0.2898837210477455  0.6418506381695026  0.1742097392038374
  0.7898834966400325  0.3581493364776900  0.1742097206532233
  0.2100138502752164  0.6418653635896198  0.6742144972738330
  0.7143905692910494  0.6409640474211887  0.1756475018596357
  0.2856284560667244  0.3590453105340206  0.6756495892659509
  0.7856281345645382  0.6409544509075769  0.6756495820618093
  0.2143904838227347  0.3590358914671721  0.1756474688588296
  0.7077335439454108  0.3683500853810350  0.3215645272094851
  0.2923115652940645  0.6316579964873953  0.8215657989153075
  0.7923118033369164  0.3683420203465622  0.8215658226681688
  0.2077337880523067  0.6316500136493342  0.3215644001995054
  0.6971780348683377  0.6412592383636484  0.8228395181872497
  0.3027947422853183  0.3587166830731933  0.3228493734626875
  0.8027947114075714  0.6412836166416929  0.3228497965055150
  0.1971781727758146  0.3587408316579534  0.8228392672513527
  0.7219992933452404  0.8608907622083269  0.5756444163410852
  0.2780100168587347  0.1391088464868105  0.0756441939710758
  0.7780107967785878  0.8608911608704627  0.0756444297246575
  0.2220003206174389  0.1391092846859581  0.5756441372195737
  0.7092896142120595  0.1455476416551094  0.0744365350267399
  0.2906999114781543  0.8544511732882806  0.5744359453263359
  0.7907005709349778  0.1455477768729552  0.5744353149104967
  0.2092902890890090  0.8544513879746932  0.0744371439210318
  0.7286405347086738  0.8599008335543245  0.4248028153385091
  0.2714336134909759  0.1400851523119692  0.9248114797850293
  0.7714335168386461  0.8599150211623138  0.9248115669680441
  0.2286403756825050  0.1400996611849673  0.4248028300925845
  0.7186546501151432  0.1505347092756964  0.9234473483822084
  0.2812876275643361  0.8494856195851817  0.4234441522798554
  0.7812890760429478  0.1505153549294837  0.4234441656330733
  0.2186562842299072  0.8494663526867853  0.9234471900938575
 
  0.00000000E+00  0.00000000E+00  0.00000000E+00
  0.00000000E+00  0.00000000E+00  0.00000000E+00
  0.00000000E+00  0.00000000E+00  0.00000000E+00
  0.00000000E+00  0.00000000E+00  0.00000000E+00
  0.00000000E+00  0.00000000E+00  0.00000000E+00
  0.00000000E+00  0.00000000E+00  0.00000000E+00
  0.00000000E+00  0.00000000E+00  0.00000000E+00
  0.00000000E+00  0.00000000E+00  0.00000000E+00
  0.00000000E+00  0.00000000E+00  0.00000000E+00
  0.00000000E+00  0.00000000E+00  0.00000000E+00
  0.00000000E+00  0.00000000E+00  0.00000000E+00
  0.00000000E+00  0.00000000E+00  0.00000000E+00
  0.00000000E+00  0.00000000E+00  0.00000000E+00
  0.00000000E+00  0.00000000E+00  0.00000000E+00
  0.00000000E+00  0.00000000E+00  0.00000000E+00
  0.00000000E+00  0.00000000E+00  0.00000000E+00
  0.00000000E+00  0.00000000E+00  0.00000000E+00
  0.00000000E+00  0.00000000E+00  0.00000000E+00
  0.00000000E+00  0.00000000E+00  0.00000000E+00
  0.00000000E+00  0.00000000E+00  0.00000000E+00
  0.00000000E+00  0.00000000E+00  0.00000000E+00
  0.00000000E+00  0.00000000E+00  0.00000000E+00
  0.00000000E+00  0.00000000E+00  0.00000000E+00
  0.00000000E+00  0.00000000E+00  0.00000000E+00
  0.00000000E+00  0.00000000E+00  0.00000000E+00
  0.00000000E+00  0.00000000E+00  0.00000000E+00
  0.00000000E+00  0.00000000E+00  0.00000000E+00
  0.00000000E+00  0.00000000E+00  0.00000000E+00
  0.00000000E+00  0.00000000E+00  0.00000000E+00
  0.00000000E+00  0.00000000E+00  0.00000000E+00
  0.00000000E+00  0.00000000E+00  0.00000000E+00
  0.00000000E+00  0.00000000E+00  0.00000000E+00
  0.00000000E+00  0.00000000E+00  0.00000000E+00
  0.00000000E+00  0.00000000E+00  0.00000000E+00
  0.00000000E+00  0.00000000E+00  0.00000000E+00
  0.00000000E+00  0.00000000E+00  0.00000000E+00
  0.00000000E+00  0.00000000E+00  0.00000000E+00
  0.00000000E+00  0.00000000E+00  0.00000000E+00
  0.00000000E+00  0.00000000E+00  0.00000000E+00
  0.00000000E+00  0.00000000E+00  0.00000000E+00
  0.00000000E+00  0.00000000E+00  0.00000000E+00
  0.00000000E+00  0.00000000E+00  0.00000000E+00
  0.00000000E+00  0.00000000E+00  0.00000000E+00
  0.00000000E+00  0.00000000E+00  0.00000000E+00
  0.00000000E+00  0.00000000E+00  0.00000000E+00
  0.00000000E+00  0.00000000E+00  0.00000000E+00
  0.00000000E+00  0.00000000E+00  0.00000000E+00
  0.00000000E+00  0.00000000E+00  0.00000000E+00
  0.00000000E+00  0.00000000E+00  0.00000000E+00
  0.00000000E+00  0.00000000E+00  0.00000000E+00
  0.00000000E+00  0.00000000E+00  0.00000000E+00
  0.00000000E+00  0.00000000E+00  0.00000000E+00
  0.00000000E+00  0.00000000E+00  0.00000000E+00
  0.00000000E+00  0.00000000E+00  0.00000000E+00
  0.00000000E+00  0.00000000E+00  0.00000000E+00
  0.00000000E+00  0.00000000E+00  0.00000000E+00
  0.00000000E+00  0.00000000E+00  0.00000000E+00
  0.00000000E+00  0.00000000E+00  0.00000000E+00
  0.00000000E+00  0.00000000E+00  0.00000000E+00
  0.00000000E+00  0.00000000E+00  0.00000000E+00
  0.00000000E+00  0.00000000E+00  0.00000000E+00
  0.00000000E+00  0.00000000E+00  0.00000000E+00
  0.00000000E+00  0.00000000E+00  0.00000000E+00
  0.00000000E+00  0.00000000E+00  0.00000000E+00
  0.00000000E+00  0.00000000E+00  0.00000000E+00
  0.00000000E+00  0.00000000E+00  0.00000000E+00
  0.00000000E+00  0.00000000E+00  0.00000000E+00
  0.00000000E+00  0.00000000E+00  0.00000000E+00
  0.00000000E+00  0.00000000E+00  0.00000000E+00
  0.00000000E+00  0.00000000E+00  0.00000000E+00
  0.00000000E+00  0.00000000E+00  0.00000000E+00
  0.00000000E+00  0.00000000E+00  0.00000000E+00
  0.00000000E+00  0.00000000E+00  0.00000000E+00
  0.00000000E+00  0.00000000E+00  0.00000000E+00
  0.00000000E+00  0.00000000E+00  0.00000000E+00
  0.00000000E+00  0.00000000E+00  0.00000000E+00
  0.00000000E+00  0.00000000E+00  0.00000000E+00
  0.00000000E+00  0.00000000E+00  0.00000000E+00
  0.00000000E+00  0.00000000E+00  0.00000000E+00
  0.00000000E+00  0.00000000E+00  0.00000000E+00
  0.00000000E+00  0.00000000E+00  0.00000000E+00
  0.00000000E+00  0.00000000E+00  0.00000000E+00
  0.00000000E+00  0.00000000E+00  0.00000000E+00
  0.00000000E+00  0.00000000E+00  0.00000000E+00
  0.00000000E+00  0.00000000E+00  0.00000000E+00
  0.00000000E+00  0.00000000E+00  0.00000000E+00
  0.00000000E+00  0.00000000E+00  0.00000000E+00
  0.00000000E+00  0.00000000E+00  0.00000000E+00
  0.00000000E+00  0.00000000E+00  0.00000000E+00
  0.00000000E+00  0.00000000E+00  0.00000000E+00
  0.00000000E+00  0.00000000E+00  0.00000000E+00
  0.00000000E+00  0.00000000E+00  0.00000000E+00
  0.00000000E+00  0.00000000E+00  0.00000000E+00
  0.00000000E+00  0.00000000E+00  0.00000000E+00
  0.00000000E+00  0.00000000E+00  0.00000000E+00
  0.00000000E+00  0.00000000E+00  0.00000000E+00
  0.00000000E+00  0.00000000E+00  0.00000000E+00
  0.00000000E+00  0.00000000E+00  0.00000000E+00
  0.00000000E+00  0.00000000E+00  0.00000000E+00
  0.00000000E+00  0.00000000E+00  0.00000000E+00
  0.00000000E+00  0.00000000E+00  0.00000000E+00
  0.00000000E+00  0.00000000E+00  0.00000000E+00
  0.00000000E+00  0.00000000E+00  0.00000000E+00
  0.00000000E+00  0.00000000E+00  0.00000000E+00
