Ca2 Fe4 S6 O24                          
   1.00000000000000     
     7.6659139999999999    0.0341560000000000    4.4643709999999999
     2.5610590000000002    7.0680110000000003    4.4527910000000004
     0.0608830000000000    0.0068170000000000    8.8394189999999995
   Ca   Fe   S    O 
     2     4     6    24
Direct
  0.2557715893640842  0.8642421604163635  0.5862974856631834
  0.9594054606568313  0.0181687650429433  0.0121665193934926
  0.6558504716163006  0.6278928833240546  0.6599973094726276
  0.1467205032623215  0.1497774965658592  0.1365688980326119
  0.8284754812808792  0.8494790679681132  0.8391340853913500
  0.3691923367016625  0.3537380898107201  0.3468442378008194
  0.9690430877491949  0.2374619409755849  0.5374023495460620
  0.4263802559114180  0.0417349121540260  0.7526350064506178
  0.5587055097786231  0.9571327387050835  0.2418409713393908
  0.7516682093857200  0.4435616925758885  0.0417970486289710
  0.2533649699976669  0.5475706066392521  0.9550591091719103
  0.0430791543216214  0.7446505210817208  0.4468887307221467
  0.4127232274520348  0.5622218755240284  0.7753799632926091
  0.8865525752375177  0.2548201934873791  0.1104739305245161
  0.8192536155227873  0.4139976293687099  0.5395314350534205
  0.0817337928046628  0.8891291943475471  0.2589078544457118
  0.5720706381356523  0.7899468610494813  0.4123374798440079
  0.2364860102681935  0.0931323417028487  0.8940779225003900
  0.7230650806811253  0.9120286783042072  0.0820187272104635
  0.1974620690195042  0.5669636433217965  0.4535029238188116
  0.1012497684549432  0.7372211918029409  0.9139974748975104
  0.4481694156238125  0.2042886922339802  0.5842107606735314
  0.9269602900438045  0.0812252813081421  0.7241165135605061
  0.5778184380261759  0.4771983104753115  0.1929797630242999
  0.9991779522294318  0.1759399039677975  0.3958750987858650
  0.4385722327697501  0.8871281013724542  0.7154115389403211
  0.3823806155054671  0.9990119182619170  0.2280904697384333
  0.7316013160574095  0.4323083753362162  0.8911928185770774
  0.1969230880592675  0.3984194962669373  0.9962086611164171
  0.8684096178630519  0.7285889466712732  0.4922236020464318
  0.1490993177047267  0.2316120037848099  0.5143287784481685
  0.5638214590860292  0.9745527667112343  0.8366576171396870
  0.5611098816708279  0.1178021688000251  0.2532083667523618
  0.8333760274628982  0.5874511410422544  0.9656635035502007
  0.2950207076377735  0.5262667581993579  0.1042330457387095
  0.0239940118661391  0.8082935951584224  0.5849596175188528
 
             NaN             NaN             NaN
             NaN             NaN             NaN
             NaN             NaN             NaN
             NaN             NaN             NaN
             NaN             NaN             NaN
             NaN             NaN             NaN
             NaN             NaN             NaN
             NaN             NaN             NaN
             NaN             NaN             NaN
             NaN             NaN             NaN
             NaN             NaN             NaN
             NaN             NaN             NaN
             NaN             NaN             NaN
             NaN             NaN             NaN
             NaN             NaN             NaN
             NaN             NaN             NaN
             NaN             NaN             NaN
             NaN             NaN             NaN
             NaN             NaN             NaN
             NaN             NaN             NaN
             NaN             NaN             NaN
             NaN             NaN             NaN
             NaN             NaN             NaN
             NaN             NaN             NaN
             NaN             NaN             NaN
             NaN             NaN             NaN
             NaN             NaN             NaN
             NaN             NaN             NaN
             NaN             NaN             NaN
             NaN             NaN             NaN
             NaN             NaN             NaN
             NaN             NaN             NaN
             NaN             NaN             NaN
             NaN             NaN             NaN
             NaN             NaN             NaN
             NaN             NaN             NaN
