Ca2 Fe4 S6 O24                          
   1.00000000000000     
     7.6659139999999999    0.0341560000000000    4.4643709999999999
     2.5610590000000002    7.0680110000000003    4.4527910000000004
     0.0608830000000000    0.0068170000000000    8.8394189999999995
   Ca   Fe   S    O 
     2     4     6    24
Direct
  0.2554732645673286  0.8632886019326416  0.5839958325308440
  0.9679699486741965  0.0073472884870147  0.0134499738735109
  0.6551715288880828  0.6339189845948794  0.6571311443331530
  0.1448819598713226  0.1530654191784529  0.1361929984252042
  0.8286731099962167  0.8456585453872127  0.8415191778888372
  0.3676547283439682  0.3523829143062168  0.3486861502650079
  0.9696038010316065  0.2364437360678826  0.5367873523368010
  0.4266497307437682  0.0404469818211859  0.7522129280283464
  0.5572769652888746  0.9588944717870710  0.2399841119289969
  0.7505877940228872  0.4426706934880961  0.0467241387896047
  0.2557662722819335  0.5474480615902849  0.9541133189183222
  0.0437714469334989  0.7451848450323564  0.4446194196272356
  0.4152453631571931  0.5639373357005008  0.7743534185459363
  0.8888540347875551  0.2511827162639138  0.1054906366834684
  0.8209244155551394  0.4147984983584080  0.5408539422895289
  0.0880901384229024  0.8862908428515145  0.2594652575848899
  0.5721992380708041  0.7907958349185863  0.4101489781198793
  0.2379859024041701  0.0928038650303141  0.8949358316105993
  0.7221324144958599  0.9157373486616399  0.0797244322829260
  0.1945829674246332  0.5629527600757023  0.4562336572255374
  0.1013550500389987  0.7358890619646165  0.9122992528704978
  0.4487623082716145  0.2045295592125657  0.5848121314933417
  0.9273870306201850  0.0805830221031253  0.7236033656998599
  0.5797857172066062  0.4684466029017924  0.2017160584173589
  0.9942703795280697  0.1776766137981295  0.3947949312268907
  0.4356535439445360  0.8886750678404863  0.7148999125298042
  0.3820118920836397 -0.0021490303841509  0.2258891275827488
  0.7258167881501438  0.4456849244249095  0.8914297450668239
  0.2034549569784171  0.3967502676097172  0.9931608285464989
  0.8674022398128259  0.7339439507382413  0.4844453318760855
  0.1510229180427819  0.2283729195565487  0.5102474709099216
  0.5672766414081936  0.9701094071192291  0.8341732372858413
  0.5566493503559101  0.1204549528789682  0.2524089656764434
  0.8321010694102133  0.5839221665432999  0.9814064939226046
  0.2940251017926225  0.5282773204151582  0.1044417692771904
  0.0221688960380545  0.8056220410376496  0.5868428342190043
 
             NaN             NaN             NaN
             NaN             NaN             NaN
             NaN             NaN             NaN
             NaN             NaN             NaN
             NaN             NaN             NaN
             NaN             NaN             NaN
             NaN             NaN             NaN
             NaN             NaN             NaN
             NaN             NaN             NaN
             NaN             NaN             NaN
             NaN             NaN             NaN
             NaN             NaN             NaN
             NaN             NaN             NaN
             NaN             NaN             NaN
             NaN             NaN             NaN
             NaN             NaN             NaN
             NaN             NaN             NaN
             NaN             NaN             NaN
             NaN             NaN             NaN
             NaN             NaN             NaN
             NaN             NaN             NaN
             NaN             NaN             NaN
             NaN             NaN             NaN
             NaN             NaN             NaN
             NaN             NaN             NaN
             NaN             NaN             NaN
             NaN             NaN             NaN
             NaN             NaN             NaN
             NaN             NaN             NaN
             NaN             NaN             NaN
             NaN             NaN             NaN
             NaN             NaN             NaN
             NaN             NaN             NaN
             NaN             NaN             NaN
             NaN             NaN             NaN
             NaN             NaN             NaN
