Ca4 Cr4 O10                             
   1.00000000000000     
    -5.3462907171978031    0.0003694438354240   -0.0001578253226566
    -0.0001431380811192    0.0007982179257407   -5.5437357851416120
     2.6734959817257544   -7.4447549761865641    2.7729484849184307
   Ca   Cr   O 
     4     4    10
Direct
  0.8847961484779261  0.4166762935463730  0.7915554180097083
  0.0930829622350901  0.5829248951125219  0.2085289881298330
  0.5931381085739618  0.1258961055424072  0.2087669854344934
  0.3842505927176595  0.8737140161648478  0.7912386795524676
  0.4822828551702822  0.4998450025145100  0.9995822910657882
  0.9826104200394183  0.0002910712229273  0.9999333596487852
  0.2847734471613668  0.1829208504410523  0.4998784462016078
  0.7843031154982404  0.8171891634211726  0.4998863404255021
  0.2488150895764151  0.7666601293805728  0.0286939684651939
  0.2206405793722349  0.2331006912745948  0.9714547049383059
  0.7204984579553844  0.2381913405400648  0.9714660123769645
  0.7488127292332543  0.7622043745073679  0.0286261131177847
  0.3368765888961383  0.4220540654427052  0.7289512109476485
  0.6078176757507552  0.5777728364672529  0.2710475033104883
  0.1082124311197989  0.1937235408285316  0.2710581517788617
  0.8371573330049846  0.8063800005639876  0.7288944680972471
  0.6392360789970948  0.1311480681582404  0.5002938598806982
  0.1386953862200051  0.8693075548708771  0.5001434986186216
 
  0.00000000E+00  0.00000000E+00  0.00000000E+00
  0.00000000E+00  0.00000000E+00  0.00000000E+00
  0.00000000E+00  0.00000000E+00  0.00000000E+00
  0.00000000E+00  0.00000000E+00  0.00000000E+00
  0.00000000E+00  0.00000000E+00  0.00000000E+00
  0.00000000E+00  0.00000000E+00  0.00000000E+00
  0.00000000E+00  0.00000000E+00  0.00000000E+00
  0.00000000E+00  0.00000000E+00  0.00000000E+00
  0.00000000E+00  0.00000000E+00  0.00000000E+00
  0.00000000E+00  0.00000000E+00  0.00000000E+00
  0.00000000E+00  0.00000000E+00  0.00000000E+00
  0.00000000E+00  0.00000000E+00  0.00000000E+00
  0.00000000E+00  0.00000000E+00  0.00000000E+00
  0.00000000E+00  0.00000000E+00  0.00000000E+00
  0.00000000E+00  0.00000000E+00  0.00000000E+00
  0.00000000E+00  0.00000000E+00  0.00000000E+00
  0.00000000E+00  0.00000000E+00  0.00000000E+00
  0.00000000E+00  0.00000000E+00  0.00000000E+00
