Ca1 V4 P6 O24
1.0
2.515831 7.047624 4.432236
0.169311 0.117913 8.709261
7.479270 0.072528 4.466791
Ca V P O
1 4 6 24
direct
0.247816 0.878089 0.609851 Ca
0.649383 0.638382 0.645693 V
0.131711 0.144639 0.141363 V
0.843035 0.850640 0.859213 V
0.360989 0.352374 0.354356 V
0.248977 0.527815 0.963277 P
0.034015 0.746769 0.466364 P
0.959439 0.254656 0.519653 P
0.454678 0.030016 0.748016 P
0.537838 0.971609 0.241997 P
0.747139 0.459355 0.043835 P
0.574241 0.786347 0.417204 O
0.298764 0.052371 0.932204 O
0.416256 0.560888 0.775155 O
0.924436 0.278678 0.043679 O
0.800068 0.433354 0.558295 O
0.071364 0.921857 0.286822 O
0.927149 0.075002 0.696846 O
0.576075 0.431100 0.222001 O
0.695579 0.953864 0.057065 O
0.195016 0.562762 0.431273 O
0.074999 0.717110 0.928087 O
0.434387 0.216654 0.578611 O
0.211301 0.357624 0.998028 O
0.842111 0.749142 0.506872 O
0.964094 0.245554 0.347547 O
0.455398 0.872534 0.716132 O
0.341491 0.002344 0.255587 O
0.698111 0.519054 0.866389 O
0.285953 0.498543 0.128594 O
0.037187 0.757827 0.633882 O
0.156228 0.237067 0.494425 O
0.651728 0.963127 0.765570 O
0.521140 0.138004 0.272614 O
0.784712 0.623086 0.020889 O
