Co8 Si4 O16                             
   1.00000000000000     
    10.2712438378142537    0.0000507045349121    0.0325067235787792
    -0.0027281483859105    5.9761448679537645   -0.0189356700143964
     0.0114500256675365   -0.0093193326440235    4.7778289143515353
   Co   Si   O 
     8     4    16
Direct
  0.4994381272458140  0.9993301661687469  0.4979197378303956
  0.9997203331273109  0.4998826999340298  0.0020539711736028
  0.4998405230762026  0.5008405075118620  0.4979799199686132
  0.9999711042620295  0.9992231021658958  0.0035171369418675
  0.7754989149857955  0.2467852956646860  0.5075735417185189
  0.2749977756921241  0.2530024481123729  0.9926499234857588
  0.2243523649125809  0.7525964741350172  0.4934435018374407
  0.7244484654437574  0.7498086705169508  0.0099521289788650
  0.5951636345879264  0.2499235178682869  0.0672919659767773
  0.0945287959040160  0.2509085116295549  0.4304605269820933
  0.4047022215566897  0.7505641686350911  0.9263725349460286
  0.9062690555631795  0.7485503827319440  0.5745660083931210
  0.5923749460138308  0.2488979607180684  0.7276206255891577
  0.0915658240861515  0.2500531899065770  0.7700107425653386
  0.4075063249321516  0.7504737599449652  0.2662329495724131
  0.9103280815107341  0.7502446436031640  0.2361109985392315
  0.9477307032779945  0.2511356376981893  0.2887598265032983
  0.4486884185231246  0.2498979445174433  0.2129511261371766
  0.0525448465398399  0.7480260888212036  0.7175847724318577
  0.5508025342516641  0.7503772526510880  0.7807239088693128
  0.6643731127702794  0.0327960796063294  0.2146137408423312
  0.1634185776269488  0.4673376090886781  0.2807677834331909
  0.3356318739706368  0.5320416294248542  0.7809304549747403
  0.8366800039979857  0.9658069635498542  0.7237864659822414
  0.3356088971131367  0.9675897487941818  0.7796354071827070
  0.8351323821866824  0.5330932648314942  0.7216351458511857
  0.6652348183843154  0.4680499090978033  0.2118108251729874
  0.1634473384570830  0.0327623726716608  0.2830443281197330
 
  0.00000000E+00  0.00000000E+00  0.00000000E+00
  0.00000000E+00  0.00000000E+00  0.00000000E+00
  0.00000000E+00  0.00000000E+00  0.00000000E+00
  0.00000000E+00  0.00000000E+00  0.00000000E+00
  0.00000000E+00  0.00000000E+00  0.00000000E+00
  0.00000000E+00  0.00000000E+00  0.00000000E+00
  0.00000000E+00  0.00000000E+00  0.00000000E+00
  0.00000000E+00  0.00000000E+00  0.00000000E+00
  0.00000000E+00  0.00000000E+00  0.00000000E+00
  0.00000000E+00  0.00000000E+00  0.00000000E+00
  0.00000000E+00  0.00000000E+00  0.00000000E+00
  0.00000000E+00  0.00000000E+00  0.00000000E+00
  0.00000000E+00  0.00000000E+00  0.00000000E+00
  0.00000000E+00  0.00000000E+00  0.00000000E+00
  0.00000000E+00  0.00000000E+00  0.00000000E+00
  0.00000000E+00  0.00000000E+00  0.00000000E+00
  0.00000000E+00  0.00000000E+00  0.00000000E+00
  0.00000000E+00  0.00000000E+00  0.00000000E+00
  0.00000000E+00  0.00000000E+00  0.00000000E+00
  0.00000000E+00  0.00000000E+00  0.00000000E+00
  0.00000000E+00  0.00000000E+00  0.00000000E+00
  0.00000000E+00  0.00000000E+00  0.00000000E+00
  0.00000000E+00  0.00000000E+00  0.00000000E+00
  0.00000000E+00  0.00000000E+00  0.00000000E+00
  0.00000000E+00  0.00000000E+00  0.00000000E+00
  0.00000000E+00  0.00000000E+00  0.00000000E+00
  0.00000000E+00  0.00000000E+00  0.00000000E+00
  0.00000000E+00  0.00000000E+00  0.00000000E+00
