Ca1 V4 S6 O24                           
   1.00000000000000     
     7.4509520000000000   -0.0694210000000000    4.9166580000000000
     2.3838900000000001    6.6847019999999997    5.3612590000000004
     0.0175410000000000   -0.5929630000000000    8.9219310000000007
   Ca   V    S    O 
     1     4     6    24
Direct
  0.2554632865021271  0.8706139408477294  0.6003068612175890
  0.6500604729250079  0.6461757944677771  0.6498219689632488
  0.1386363071578710  0.1542844736258673  0.1378423266710608
  0.8449654221349973  0.8350151874257734  0.8497015824200601
  0.3633540372041004  0.3398048489812490  0.3522779909947659
  0.9629995337405286  0.2548415488577107  0.5163436959132477
  0.4440792705315941  0.0291806380190859  0.7524677173838347
  0.5532790942943480  0.9647197430379189  0.2355397661342978
  0.7445940976084261  0.4469192403580982  0.0564087727677387
  0.2548646143570970  0.5246795685173056  0.9486569868236598
  0.0405786679574108  0.7447384550436590  0.4636480403740082
  0.4205924584442273  0.5625075709675952  0.7687537979072417
  0.9177038529524363  0.2731294224930089  0.0529687176109022
  0.8180387582687316  0.4104605746102534  0.5830959165554391
  0.0665002008868059  0.9224385911614325  0.3115043399311752
  0.5885664539022272  0.7775378119854696  0.3948204206901350
  0.3089798770190086  0.0170484492705169  0.9468710342192423
  0.6940751586940538  0.9551673944594877  0.0507098820008776
  0.1895565722180500  0.5816987624415356  0.4067221995616518
  0.0906165021069536  0.7100314875664449  0.9242529542504792
  0.3875537115969675  0.2210650058667306  0.6141915477048486
  0.9327101113696570  0.0714715980788183  0.6612718977533999
  0.5900239497821147  0.4095035647595666  0.2426359796715508
  0.9666414447080107  0.2896645248324167  0.3353013928683162
  0.4416736419064772  0.8906620842945803  0.7072320086786196
  0.3579464896739825  0.0118280127198076  0.2513656303786047
  0.6844102426290535  0.5048548596701093  0.9049577496089892
  0.2232744556301001  0.3785788606131466  0.9521029175581366
  0.8537076614152848  0.7540092502606039  0.5082063852252748
  0.1544942140894977  0.2203697189950744  0.4984752062853425
  0.6371284460278149  0.9725926715580749  0.7385850080354708
  0.5523990644279333  0.1075824371382470  0.2697055002201513
  0.7852304072755615  0.5987733437910762  0.0338013676908107
  0.2891157637443160  0.4706483799839262  0.1137694177231835
  0.0531661477092488  0.7259767295784100  0.6334960534815274
 
             NaN             NaN             NaN
             NaN             NaN             NaN
             NaN             NaN             NaN
             NaN             NaN             NaN
             NaN             NaN             NaN
             NaN             NaN             NaN
             NaN             NaN             NaN
             NaN             NaN             NaN
             NaN             NaN             NaN
             NaN             NaN             NaN
             NaN             NaN             NaN
             NaN             NaN             NaN
             NaN             NaN             NaN
             NaN             NaN             NaN
             NaN             NaN             NaN
             NaN             NaN             NaN
             NaN             NaN             NaN
             NaN             NaN             NaN
             NaN             NaN             NaN
             NaN             NaN             NaN
             NaN             NaN             NaN
             NaN             NaN             NaN
             NaN             NaN             NaN
             NaN             NaN             NaN
             NaN             NaN             NaN
             NaN             NaN             NaN
             NaN             NaN             NaN
             NaN             NaN             NaN
             NaN             NaN             NaN
             NaN             NaN             NaN
             NaN             NaN             NaN
             NaN             NaN             NaN
             NaN             NaN             NaN
             NaN             NaN             NaN
             NaN             NaN             NaN
