Ca1 V4 S6 O24                           
   1.00000000000000     
     7.4509520000000000   -0.0694210000000000    4.9166580000000000
     2.3838900000000001    6.6847019999999997    5.3612590000000004
     0.0175410000000000   -0.5929630000000000    8.9219310000000007
   Ca   V    S    O 
     1     4     6    24
Direct
  0.2544711777451168  0.8668561427171733  0.5972683310681480
  0.6508838951765173  0.6440232189237306  0.6518114681858961
  0.1359450331520179  0.1563967478942054  0.1365054943422362
  0.8436225116741639  0.8374487115075168  0.8503205486823859
  0.3642592969567955  0.3371034483037840  0.3537127528900265
  0.9613741142670845  0.2625388291990589  0.5120219839857790
  0.4415891605586447  0.0303157440885607  0.7554504961384121
  0.5555715750932684  0.9672943115641345  0.2341668619568454
  0.7448889462919805  0.4417813101168898  0.0671573514542904
  0.2541653402537007  0.5146306469040081  0.9532464012322914
  0.0358310743155699  0.7444015864884410  0.4600326500589130
  0.4242265031325066  0.5642774327196878  0.7648465505130773
  0.9166558389657693  0.2776509531268920  0.0494558661108695
  0.8165248143987363  0.4078750737438249  0.5838751867020834
  0.0640700438584463  0.9224552749141447  0.3136465011560365
  0.5905471075294535  0.7776152369383790  0.3943706346410727
  0.3126938931783396  0.0161423224578653  0.9452640220722006
  0.6927618931928476  0.9591321257466940  0.0507647196862663
  0.1943767306109620  0.5817639351630192  0.4052727132492100
  0.0880434378144971  0.7119988042158700  0.9242147392102302
  0.3869473204983728  0.2192952302751895  0.6164299101082822
  0.9355242095041371  0.0671780216102976  0.6614219721949470
  0.5942736197313367  0.4069519009364775  0.2399445869951685
  0.9666191758450774  0.2916968423722003  0.3352056808192397
  0.4428652888326526  0.8898406242811374  0.7067891325388842
  0.3559300335956732  0.0139979203223410  0.2522073889230171
  0.6807159797181935  0.5070608453733931  0.9001433014116798
  0.2261666813540832  0.3799868242435899  0.9517320164513784
  0.8591140378758174  0.7512459723137650  0.5057746767859574
  0.1529958150701811  0.2230861445472136  0.4993733304899273
  0.6380828179416626  0.9725809658191693  0.7382045211960097
  0.5520494636076112  0.1064877031032865  0.2712195359015879
  0.7802375796132114  0.6014050097442131  0.0339072647958091
  0.2922621926714127  0.4708081141885794  0.1138622539042353
  0.0509995276134379  0.7247743069594882  0.6380770279310034
 
             NaN             NaN             NaN
             NaN             NaN             NaN
             NaN             NaN             NaN
             NaN             NaN             NaN
             NaN             NaN             NaN
             NaN             NaN             NaN
             NaN             NaN             NaN
             NaN             NaN             NaN
             NaN             NaN             NaN
             NaN             NaN             NaN
             NaN             NaN             NaN
             NaN             NaN             NaN
             NaN             NaN             NaN
             NaN             NaN             NaN
             NaN             NaN             NaN
             NaN             NaN             NaN
             NaN             NaN             NaN
             NaN             NaN             NaN
             NaN             NaN             NaN
             NaN             NaN             NaN
             NaN             NaN             NaN
             NaN             NaN             NaN
             NaN             NaN             NaN
             NaN             NaN             NaN
             NaN             NaN             NaN
             NaN             NaN             NaN
             NaN             NaN             NaN
             NaN             NaN             NaN
             NaN             NaN             NaN
             NaN             NaN             NaN
             NaN             NaN             NaN
             NaN             NaN             NaN
             NaN             NaN             NaN
             NaN             NaN             NaN
             NaN             NaN             NaN
