Fe4 S4 O16                              
   1.00000000000000     
     8.6982623479666614   -0.0000004247129025   -0.0000000294292019
    -0.0000003203237611    6.7859359090549480    0.0000000649554616
    -0.0000000156198206    0.0000000470143900    4.7806740004496771
   Fe   S    O 
     4     4    16
Direct
  0.5000022524045988  0.0000274986154878  0.5000089527563603
  0.0000022532229309  0.4999725058584588  0.9999910575135829
  0.5000022601479088  0.4999724995516033  0.5000089404750128
  0.0000022538084963  0.0000275041272957  0.9999910507613023
  0.8217220055402308  0.2500000022092763  0.4770750147330958
  0.3217220021911302  0.2499999654148795  0.0229249644788396
  0.1782795322590474  0.7500000035138683  0.5229264713705533
  0.6782795312467158  0.7500000348875702  0.9770735589411004
  0.8740436699731191  0.0709748544258986  0.3376353700887691
  0.3740436960770595  0.4290251540168839  0.1623646379195023
  0.1259514640767563  0.5709681092520000  0.6623648048060176
  0.6259514768242624  0.9290318826641766  0.8376351911340620
  0.1259514765936558  0.9290318931547361  0.6623648223867775
  0.6259514492796328  0.5709680884089821  0.8376351615016233
  0.8740436823975770  0.4290251310576210  0.3376353944577417
  0.3740436677152346  0.0709748764567522  0.1623646125825644
  0.6503657012563480  0.2499999860393558  0.4686953040026012
  0.1503657083172953  0.2500000013678090  0.0313046921481330
  0.3496292418573503  0.7500000122756703  0.5313200606458892
  0.8496292384348010  0.7500000018703474  0.9686799452738768
  0.8780991928878663  0.2499999928292667  0.7685416529854265
  0.3780991948348955  0.2499999974943989  0.7314583561678205
  0.1219095249088795  0.7500000045170765  0.2314702253535188
  0.6219095237442005  0.7499999999905924  0.2685297575158287
 
  0.00000000E+00  0.00000000E+00  0.00000000E+00
  0.00000000E+00  0.00000000E+00  0.00000000E+00
  0.00000000E+00  0.00000000E+00  0.00000000E+00
  0.00000000E+00  0.00000000E+00  0.00000000E+00
  0.00000000E+00  0.00000000E+00  0.00000000E+00
  0.00000000E+00  0.00000000E+00  0.00000000E+00
  0.00000000E+00  0.00000000E+00  0.00000000E+00
  0.00000000E+00  0.00000000E+00  0.00000000E+00
  0.00000000E+00  0.00000000E+00  0.00000000E+00
  0.00000000E+00  0.00000000E+00  0.00000000E+00
  0.00000000E+00  0.00000000E+00  0.00000000E+00
  0.00000000E+00  0.00000000E+00  0.00000000E+00
  0.00000000E+00  0.00000000E+00  0.00000000E+00
  0.00000000E+00  0.00000000E+00  0.00000000E+00
  0.00000000E+00  0.00000000E+00  0.00000000E+00
  0.00000000E+00  0.00000000E+00  0.00000000E+00
  0.00000000E+00  0.00000000E+00  0.00000000E+00
  0.00000000E+00  0.00000000E+00  0.00000000E+00
  0.00000000E+00  0.00000000E+00  0.00000000E+00
  0.00000000E+00  0.00000000E+00  0.00000000E+00
  0.00000000E+00  0.00000000E+00  0.00000000E+00
  0.00000000E+00  0.00000000E+00  0.00000000E+00
  0.00000000E+00  0.00000000E+00  0.00000000E+00
  0.00000000E+00  0.00000000E+00  0.00000000E+00
