Ca4 Co4 O12                             
   1.00000000000000     
     5.2254408853873180   -0.0001417758414288   -0.0000988099843250
    -0.0000850384267140    5.3573925456286320    0.0010173940769908
     0.0000084482271990    0.0021985434963995    7.5299107685223454
   Ca   Co   O 
     4     4    12
Direct
  0.9929056228132196  0.9567067700467903  0.2498426644381929
  0.5071611617810320  0.4566152658683458  0.2498291939832200
  0.0071404842572478  0.0433848935275798  0.7501601424331995
  0.4928930179607528  0.5433022271450263  0.7501573872095844
  0.9999650723292755  0.5000381615508679  0.0000167210885798
  0.4999271314589960  0.9999653678413647  0.5000000536950466
  0.9999871790080994  0.5000305220617012  0.4999917511182778
  0.4999501762336413  0.9999144329331889  0.9999921805771493
  0.7250555639069680  0.7021037464826196  0.0349597798805049
  0.7739969357624897  0.2012371797869753  0.4654491312043303
  0.2739632849943285  0.2987856098698152  0.5345528539781697
  0.2250485443055542  0.7978900933436740  0.9650660136170872
  0.2749447927812074  0.2979395861461818  0.9650468310037833
  0.2260239185799503  0.7987540569952541  0.5345487387605582
  0.7260245859771628  0.7012539376675233  0.4654534686060391
  0.7749246627252517  0.2020622348983347  0.0349366536413390
  0.4308834586758345  0.0147722107728430  0.2495028106105698
  0.0691700523436320  0.5148213854956483  0.2495017932102213
  0.5691535689843085  0.9851691909183918  0.7504927757122486
  0.9308807851210552  0.4852531266478669  0.7504990552318913
 
  0.00000000E+00  0.00000000E+00  0.00000000E+00
  0.00000000E+00  0.00000000E+00  0.00000000E+00
  0.00000000E+00  0.00000000E+00  0.00000000E+00
  0.00000000E+00  0.00000000E+00  0.00000000E+00
  0.00000000E+00  0.00000000E+00  0.00000000E+00
  0.00000000E+00  0.00000000E+00  0.00000000E+00
  0.00000000E+00  0.00000000E+00  0.00000000E+00
  0.00000000E+00  0.00000000E+00  0.00000000E+00
  0.00000000E+00  0.00000000E+00  0.00000000E+00
  0.00000000E+00  0.00000000E+00  0.00000000E+00
  0.00000000E+00  0.00000000E+00  0.00000000E+00
  0.00000000E+00  0.00000000E+00  0.00000000E+00
  0.00000000E+00  0.00000000E+00  0.00000000E+00
  0.00000000E+00  0.00000000E+00  0.00000000E+00
  0.00000000E+00  0.00000000E+00  0.00000000E+00
  0.00000000E+00  0.00000000E+00  0.00000000E+00
  0.00000000E+00  0.00000000E+00  0.00000000E+00
  0.00000000E+00  0.00000000E+00  0.00000000E+00
  0.00000000E+00  0.00000000E+00  0.00000000E+00
  0.00000000E+00  0.00000000E+00  0.00000000E+00
