Ca2 V4 S6 O24                           
   1.00000000000000     
     7.6651009999999999    0.1152050000000000    4.5156020000000003
     2.6314820000000001    7.1881550000000001    4.5151930000000000
     0.1331880000000000    0.1149170000000000    8.9066910000000004
   Ca   V    S    O 
     2     4     6    24
Direct
  0.4523876448699982  0.5709231685009306  0.4901062587327235
  0.9832404081922234  0.0300035433890571 -0.0163518595443237
  0.6454785534290582  0.6361153808967109  0.6638519301000371
  0.1501546452062756  0.1432395298542182  0.1476973552625765
  0.8462230835357365  0.8604265057474431  0.8430642057642613
  0.3457109839217127  0.3582445287892261  0.3497036676316843
  0.9481711453797828  0.2572447682158857  0.5454866184150048
  0.4445244548807331  0.0466833845168444  0.7541662895637348
  0.5449706743422784  0.9547073110942949  0.2467519255374742
  0.7468917636582000  0.4469489389384218  0.0464429842243299
  0.2381897138359647  0.5579095599582788  0.9564951649613250
  0.0401153435439672  0.7572060425464431  0.4478270339325084
  0.4105894713763253  0.5495260916294931  0.7853850245087418
  0.8889954446652700  0.2625939632684401  0.1090008353081253
  0.7772436445074467  0.4283287415614706  0.5351029236784431
  0.0735158646810116  0.9008038139220341  0.2576756933521679
  0.5512297808209442  0.8028639694104520  0.4298023180547381
  0.2513490909552553  0.1018533185718216  0.8910405361111414
  0.7322891610872854  0.9074288522763249  0.1033122735489644
  0.2124422107550396  0.5858732365675328  0.4442161234633443
  0.0961089084919109  0.7470893149233180  0.9039607706577841
  0.4531160192330648  0.2034684023767727  0.5732866415410902
  0.8981507940642703  0.1128115892637599  0.7336676406234236
  0.5725290593437801  0.4685531729714464  0.2110094976815189
  1.0075399072840308  0.1896597074004898  0.4006524261751989
  0.4725008629947128  0.8746929846133107  0.7442128989390614
  0.4026583939516162  0.9505584996826042  0.2123988843698733
  0.7191294145164907  0.4338918308843099  0.9049665674036197
  0.1764744743893678  0.4110107971751834  1.0061198434802863
  0.8800913421088897  0.7180572761772442  0.4939334300711269
  0.0960332345229914  0.2934492857735840  0.5360863040508197
  0.5805178749223960  1.0201515896593314  0.8175425770115734
  0.5035655981414926  0.1352815590593150  0.2469916230965919
  0.8103522633465139  0.6003849172297717  0.9709830642184275
  0.2737964650348831  0.5433237054055811  0.1060628319254012
  0.0216639454920813  0.8180313702991001  0.5820926083589139
 
             NaN             NaN             NaN
             NaN             NaN             NaN
             NaN             NaN             NaN
             NaN             NaN             NaN
             NaN             NaN             NaN
             NaN             NaN             NaN
             NaN             NaN             NaN
             NaN             NaN             NaN
             NaN             NaN             NaN
             NaN             NaN             NaN
             NaN             NaN             NaN
             NaN             NaN             NaN
             NaN             NaN             NaN
             NaN             NaN             NaN
             NaN             NaN             NaN
             NaN             NaN             NaN
             NaN             NaN             NaN
             NaN             NaN             NaN
             NaN             NaN             NaN
             NaN             NaN             NaN
             NaN             NaN             NaN
             NaN             NaN             NaN
             NaN             NaN             NaN
             NaN             NaN             NaN
             NaN             NaN             NaN
             NaN             NaN             NaN
             NaN             NaN             NaN
             NaN             NaN             NaN
             NaN             NaN             NaN
             NaN             NaN             NaN
             NaN             NaN             NaN
             NaN             NaN             NaN
             NaN             NaN             NaN
             NaN             NaN             NaN
             NaN             NaN             NaN
             NaN             NaN             NaN
