Ca2 V4 S6 O24
1.0
7.665101 0.115205 4.515602
2.631482 7.188155 4.515193
0.133188 0.114917 8.906691
Ca V S O
2 4 6 24
direct
0.438023 0.590623 0.520218 Ca
0.986169 1.006100 1.001684 Ca
0.646133 0.643047 0.648272 V
0.143794 0.145057 0.144511 V
0.848571 0.851240 0.847490 V
0.354880 0.350951 0.349148 V
0.955211 0.247412 0.542776 S
0.443551 0.043378 0.749601 S
0.549858 0.952418 0.244936 S
0.747127 0.449006 0.045169 S
0.246990 0.546156 0.951056 S
0.043031 0.748635 0.450567 S
0.405201 0.564035 0.769945 O
0.897883 0.263938 0.078876 O
0.786843 0.412107 0.556294 O
0.071631 0.899879 0.265269 O
0.567378 0.774816 0.406353 O
0.258882 0.073500 0.901312 O
0.728138 0.923862 0.089127 O
0.211676 0.583133 0.439121 O
0.091427 0.731732 0.924859 O
0.435658 0.219431 0.588348 O
0.926901 0.093664 0.727505 O
0.584988 0.443749 0.219195 O
0.982877 0.193902 0.399770 O
0.470116 0.895180 0.702250 O
0.395807 0.989426 0.201271 O
0.702119 0.471172 0.898709 O
0.191472 0.400412 0.987386 O
0.884913 0.714252 0.489683 O
0.113429 0.279595 0.509168 O
0.588549 -0.000866 0.810548 O
0.525949 0.102220 0.285443 O
0.808609 0.593677 -0.000405 O
0.296738 0.514746 0.098403 O
0.019374 0.802272 0.592239 O
