Ca2 Ni4 S6 O24                          
   1.00000000000000     
     7.6085801226924952    0.0866939840601833    4.4446251043920864
     2.5956790865096493    7.1484862546288701    4.4409980298492080
     0.1300688496126616    0.0899687033815044    8.8101628002495005
   Ca   Ni   S    O 
     2     4     6    24
Direct
  0.3836664137149474  0.7471530682138361  0.1123820281542325
  0.6123234206868137  0.2471931971123781  0.8835842966323258
  0.6530596559273966  0.6479125618237223  0.6409277933210801
  0.1409126299418384  0.1478839766459182  0.1530954776939515
  0.8561363817618409  0.8460467427913402  0.8427480638357489
  0.3427144581476837  0.3460601760020819  0.3561787002533131
  0.9527311782472132  0.2477228448112576  0.5424777236879222
  0.4606590440990037  0.0444479338622060  0.7465150767803377
  0.5351978559666106  0.9500010399307467  0.2497107558973307
  0.7497315756836636  0.4499277352538263  0.0352036056586826
  0.2465014460540288  0.5445709109145496  0.9606815077988292
  0.0424914163053954  0.7476688900642623  0.4527519173623294
  0.4078705298328285  0.5756894198788086  0.7852031149950179
  0.9276576278216379  0.3118611515392664  0.0522924876421577
  0.7707331719858503  0.4073251685680956  0.5712641474145979
  0.0713900801739083  0.9072873277883901  0.2707695956561245
  0.5521682261272499  0.8120316390475096  0.4277210518919455
  0.2851852529115183  0.0756840269937179  0.9078269364095980
  0.7104341172971210  0.9193446603781815  0.0879773434269686
  0.2242043507820197  0.5876541714992765  0.4245200586693687
  0.0683609883000321  0.6825816625631351  0.9440983939302392
  0.4441637299024122  0.1823224127160027  0.5682880783189495
  0.9244679487343426  0.0877464410720701  0.7242215462750335
  0.5879554202534538  0.4193780752740669  0.2104189020740331
  0.9832115281795254  0.2036369915463528  0.3898399812947544
  0.5077141729685070  0.8503569576128507  0.7623722167850129
  0.3846185450428324  0.9471778085730140  0.2203397248193531
  0.7204120098113888  0.4471380713411298  0.8845610000556861
  0.2622428656190053  0.3505310537000002  0.0077291712144977
  0.8898278793953694  0.7037385923569450  0.4830784553945985
  0.1050270306626492  0.2923566475754576  0.5119212619469939
  0.6113075672556607  0.0468812630387961  0.7760181056042880
  0.4875198096340811  0.1442042175928538  0.2340092751491051
  0.7341371277798239  0.6440996361994056  0.9875207869005398
  0.2760253528434561  0.5469867373558410  0.1113309549513159
  0.0119391901488922  0.7921967883627219  0.6051204621037596
 
  0.00000000E+00  0.00000000E+00  0.00000000E+00
  0.00000000E+00  0.00000000E+00  0.00000000E+00
  0.00000000E+00  0.00000000E+00  0.00000000E+00
  0.00000000E+00  0.00000000E+00  0.00000000E+00
  0.00000000E+00  0.00000000E+00  0.00000000E+00
  0.00000000E+00  0.00000000E+00  0.00000000E+00
  0.00000000E+00  0.00000000E+00  0.00000000E+00
  0.00000000E+00  0.00000000E+00  0.00000000E+00
  0.00000000E+00  0.00000000E+00  0.00000000E+00
  0.00000000E+00  0.00000000E+00  0.00000000E+00
  0.00000000E+00  0.00000000E+00  0.00000000E+00
  0.00000000E+00  0.00000000E+00  0.00000000E+00
  0.00000000E+00  0.00000000E+00  0.00000000E+00
  0.00000000E+00  0.00000000E+00  0.00000000E+00
  0.00000000E+00  0.00000000E+00  0.00000000E+00
  0.00000000E+00  0.00000000E+00  0.00000000E+00
  0.00000000E+00  0.00000000E+00  0.00000000E+00
  0.00000000E+00  0.00000000E+00  0.00000000E+00
  0.00000000E+00  0.00000000E+00  0.00000000E+00
  0.00000000E+00  0.00000000E+00  0.00000000E+00
  0.00000000E+00  0.00000000E+00  0.00000000E+00
  0.00000000E+00  0.00000000E+00  0.00000000E+00
  0.00000000E+00  0.00000000E+00  0.00000000E+00
  0.00000000E+00  0.00000000E+00  0.00000000E+00
  0.00000000E+00  0.00000000E+00  0.00000000E+00
  0.00000000E+00  0.00000000E+00  0.00000000E+00
  0.00000000E+00  0.00000000E+00  0.00000000E+00
  0.00000000E+00  0.00000000E+00  0.00000000E+00
  0.00000000E+00  0.00000000E+00  0.00000000E+00
  0.00000000E+00  0.00000000E+00  0.00000000E+00
  0.00000000E+00  0.00000000E+00  0.00000000E+00
  0.00000000E+00  0.00000000E+00  0.00000000E+00
  0.00000000E+00  0.00000000E+00  0.00000000E+00
  0.00000000E+00  0.00000000E+00  0.00000000E+00
  0.00000000E+00  0.00000000E+00  0.00000000E+00
  0.00000000E+00  0.00000000E+00  0.00000000E+00
