Ni6 S8                                  
   1.00000000000000     
    -4.6642595251202357   -4.6789000458856984    0.0009943369864519
    -4.6647001248985616    0.0014150177609057   -4.6806730431773635
     0.0018107931293705   -4.6797528565786228   -4.6810704567602315
   Ni   S 
     6     8
Direct
  0.7499420655728343  0.7500879234363524  0.7500757165271179
  0.0000375129144871 -0.0000151735773876  0.0000396230424622
  0.8747348664088799  0.3752290986286146  0.3751953418844877
  0.3751390297718790  0.8748338657102189  0.3750636716502745
  0.3751157325616833  0.3749796320979994  0.8747692110398633
  0.3749888942381646  0.3748925594987728  0.3748437831387159
  0.1490653331097508  0.6162612039419774  0.6170691317533763
  0.6163110981891254  0.1489529957479485  0.6173907334846389
  0.6172632518599366  0.6174324431288275  0.1489220470438770
  0.6174528864807770  0.6171761007337935  0.6163972784068813
  0.6010155942267075  0.1337343323656779  0.1328180480574180
  0.1337111232737782  0.6010491765676150  0.1324757740359579
  0.1327084364934268  0.1325127786123211  0.6010607987313639
  0.1325141748985767  0.1328730631072756  0.1338788412035798
 
  0.00000000E+00  0.00000000E+00  0.00000000E+00
  0.00000000E+00  0.00000000E+00  0.00000000E+00
  0.00000000E+00  0.00000000E+00  0.00000000E+00
  0.00000000E+00  0.00000000E+00  0.00000000E+00
  0.00000000E+00  0.00000000E+00  0.00000000E+00
  0.00000000E+00  0.00000000E+00  0.00000000E+00
  0.00000000E+00  0.00000000E+00  0.00000000E+00
  0.00000000E+00  0.00000000E+00  0.00000000E+00
  0.00000000E+00  0.00000000E+00  0.00000000E+00
  0.00000000E+00  0.00000000E+00  0.00000000E+00
  0.00000000E+00  0.00000000E+00  0.00000000E+00
  0.00000000E+00  0.00000000E+00  0.00000000E+00
  0.00000000E+00  0.00000000E+00  0.00000000E+00
  0.00000000E+00  0.00000000E+00  0.00000000E+00
