Fe4 P4 O16
1.0
9.814200 0.000000 0.000000
0.000000 5.789300 0.000000
0.000000 0.000000 4.782000
Fe P O
4 4 16
direct
0.775300 0.250000 0.549600 Fe3+
0.275300 0.250000 0.950400 Fe3+
0.224700 0.750000 0.450400 Fe3+
0.724700 0.750000 0.049600 Fe3+
0.593000 0.250000 0.101100 P5+
0.093000 0.250000 0.398900 P5+
0.407000 0.750000 0.898900 P5+
0.907000 0.750000 0.601100 P5+
0.615300 0.250000 0.789300 O2-
0.115300 0.250000 0.710700 O2-
0.384700 0.750000 0.210700 O2-
0.884700 0.750000 0.289300 O2-
0.945000 0.250000 0.348900 O2-
0.445000 0.250000 0.151100 O2-
0.055000 0.750000 0.651100 O2-
0.555000 0.750000 0.848900 O2-
0.664900 0.046500 0.248000 O2-
0.164900 0.453500 0.252000 O2-
0.335100 0.546500 0.752000 O2-
0.835100 0.953500 0.748000 O2-
0.335100 0.953500 0.752000 O2-
0.835100 0.546500 0.748000 O2-
0.664900 0.453500 0.248000 O2-
0.164900 0.046500 0.252000 O2-
