Ca8 Ti4 Si6 O24                         
   1.00000000000000     
     7.8622344952836132   -0.2143420512744459    4.0825377153329478
     2.3832267032866254    7.4939988318970538    4.0863510934056944
    -0.3019053195655994   -0.2048163245824544    8.8540336464632290
   Ca   Ti   Si   O 
     8     4     6    24
Direct
  0.5013145790558369  0.4982682573747397  0.4994481141173566
  0.0013153183049823  0.9994193933153639  0.9982568303676587
  0.3921267461486266  0.7380191289055276  0.1163973251421879
  0.8919409036204655  0.6164914869908600  0.2380250512402355
  0.1162402435360761  0.3901404740678061  0.7409677349117061
  0.2421148454228614  0.8901679796319115  0.6126959344310023
  0.7421148435815965  0.1128029774826942  0.3900964617864986
  0.6162805457681202  0.2408563990091110  0.8901955212217985
  0.6459469173819627  0.6495613197143228  0.6502309149742516
  0.1459459874081546  0.1501514061675877  0.1496085819347783
  0.8458692146011799  0.8451199430546552  0.8442809206587683
  0.3458012697083745  0.3443961214003721  0.3450390183544627
  0.9372492186627497  0.2484641140987165  0.5602749883933456
  0.4371965531395787  0.0602697949972040  0.7484668323631070
  0.5610684836067676  0.9360533825461772  0.2469246874641584
  0.7467449692932604  0.4372021124782606  0.0606318211336543
  0.2467637457057705  0.5606905323102112  0.9371277406977470
  0.0610856886137583  0.7468973283377167  0.4360198679967553
  0.3984093469911585  0.5809037835893420  0.7469195150215739
  0.8984657275402128  0.2471600355041090  0.0806061779281748
  0.7469521245112603  0.3992026028752633  0.5865353828948656
  0.0856998138779019  0.8988268116201041  0.2455098536020941
  0.5859905770747957  0.7454564402723634  0.3987299144261058
  0.2468951145303038  0.0866292550438530  0.8992456912324727
  0.7480428934606138  0.9239099379383973  0.0891773684524466
  0.2481825194539837  0.5893404988637982  0.4236413171576103
  0.0905904795060977  0.7484139611210097  0.9212879855130183
  0.4251361741254200  0.2458962238448592  0.5889849039081057
  0.9250152315633713  0.0890438431286640  0.7459703992719184
  0.5906853192088448  0.4212484622709383  0.2484491915769453
  0.9630818099262726  0.1974652727565385  0.3940856949172158
  0.4628962545748507  0.8940527906642401  0.6976282818214727
  0.3960467652352904  0.9633481670630673  0.1937825011886005
  0.6874140924464101  0.4688697100282084  0.8981188079070250
  0.1875649628815097  0.3980832035697475  0.9688464826528218
  0.8962512056678591  0.6933586018657110  0.4635713362068614
  0.1005498089756216  0.3043090902814924  0.5317792149842830
  0.6003675827242887  0.0316326543672645  0.8045319545174863
  0.5319868204141756  0.0975100063162273  0.3058858440285732
  0.8018993646197501  0.6007099284898203  0.0333008448720875
  0.3020492660804663  0.5333812293982234  0.1005389160583832
  0.0321066710494406  0.8056753372435637  0.5975840726704504
 
  0.00000000E+00  0.00000000E+00  0.00000000E+00
  0.00000000E+00  0.00000000E+00  0.00000000E+00
  0.00000000E+00  0.00000000E+00  0.00000000E+00
  0.00000000E+00  0.00000000E+00  0.00000000E+00
  0.00000000E+00  0.00000000E+00  0.00000000E+00
  0.00000000E+00  0.00000000E+00  0.00000000E+00
  0.00000000E+00  0.00000000E+00  0.00000000E+00
  0.00000000E+00  0.00000000E+00  0.00000000E+00
  0.00000000E+00  0.00000000E+00  0.00000000E+00
  0.00000000E+00  0.00000000E+00  0.00000000E+00
  0.00000000E+00  0.00000000E+00  0.00000000E+00
  0.00000000E+00  0.00000000E+00  0.00000000E+00
  0.00000000E+00  0.00000000E+00  0.00000000E+00
  0.00000000E+00  0.00000000E+00  0.00000000E+00
  0.00000000E+00  0.00000000E+00  0.00000000E+00
  0.00000000E+00  0.00000000E+00  0.00000000E+00
  0.00000000E+00  0.00000000E+00  0.00000000E+00
  0.00000000E+00  0.00000000E+00  0.00000000E+00
  0.00000000E+00  0.00000000E+00  0.00000000E+00
  0.00000000E+00  0.00000000E+00  0.00000000E+00
  0.00000000E+00  0.00000000E+00  0.00000000E+00
  0.00000000E+00  0.00000000E+00  0.00000000E+00
  0.00000000E+00  0.00000000E+00  0.00000000E+00
  0.00000000E+00  0.00000000E+00  0.00000000E+00
  0.00000000E+00  0.00000000E+00  0.00000000E+00
  0.00000000E+00  0.00000000E+00  0.00000000E+00
  0.00000000E+00  0.00000000E+00  0.00000000E+00
  0.00000000E+00  0.00000000E+00  0.00000000E+00
  0.00000000E+00  0.00000000E+00  0.00000000E+00
  0.00000000E+00  0.00000000E+00  0.00000000E+00
  0.00000000E+00  0.00000000E+00  0.00000000E+00
  0.00000000E+00  0.00000000E+00  0.00000000E+00
  0.00000000E+00  0.00000000E+00  0.00000000E+00
  0.00000000E+00  0.00000000E+00  0.00000000E+00
  0.00000000E+00  0.00000000E+00  0.00000000E+00
  0.00000000E+00  0.00000000E+00  0.00000000E+00
  0.00000000E+00  0.00000000E+00  0.00000000E+00
  0.00000000E+00  0.00000000E+00  0.00000000E+00
  0.00000000E+00  0.00000000E+00  0.00000000E+00
  0.00000000E+00  0.00000000E+00  0.00000000E+00
  0.00000000E+00  0.00000000E+00  0.00000000E+00
  0.00000000E+00  0.00000000E+00  0.00000000E+00
