Cr1 S2                                  
   1.00000000000000     
    -1.6545474825195912   -2.8520125900567899    0.2657583698573890
     1.6421940850621366   -2.8441444141913372    0.2593717962394757
    -0.0196413891494841    0.0805819136703244   10.7722356379177437
   Cr   S 
     1     2
Direct
 -0.0000536377860835  0.0000366662797893  0.9999966580052879
  0.6878621738608609  0.6861782908063367  0.8720677698823009
  0.3121914639252229  0.3137850429138739  0.1279355721124112
 
  0.00000000E+00  0.00000000E+00  0.00000000E+00
  0.00000000E+00  0.00000000E+00  0.00000000E+00
  0.00000000E+00  0.00000000E+00  0.00000000E+00
