Ca1 Co4 S6 O24
1.0
7.570496 0.070767 4.459369
2.603512 7.067786 4.452318
0.171739 0.078088 8.763725
Ca Co S O
1 4 6 24
direct
0.249248 0.882497 0.609237 Ca
0.648852 0.640516 0.654316 Co
0.137877 0.141753 0.144097 Co
0.843452 0.843257 0.850860 Co
0.360467 0.353965 0.347650 Co
0.958618 0.253153 0.522616 S
0.451030 0.037426 0.747081 S
0.544422 0.964851 0.242776 S
0.747247 0.445852 0.046235 S
0.246811 0.536332 0.956491 S
0.040387 0.748420 0.458731 S
0.410437 0.564655 0.773824 O
0.905934 0.267410 0.066130 O
0.818391 0.432767 0.540945 O
0.081949 0.898957 0.276848 O
0.577453 0.788372 0.407461 O
0.305476 0.048825 0.932020 O
0.688763 0.941450 0.064853 O
0.185138 0.563742 0.449721 O
0.086144 0.719276 0.925092 O
0.409897 0.218143 0.596844 O
0.923461 0.090943 0.700611 O
0.578832 0.431136 0.222349 O
0.963020 0.227198 0.367391 O
0.446860 0.886409 0.717432 O
0.352767 0.999505 0.258042 O
0.699511 0.484704 0.888958 O
0.205146 0.381075 0.985872 O
0.852197 0.750038 0.515535 O
0.153078 0.235811 0.484139 O
0.637431 -0.016193 0.748286 O
0.539181 0.121499 0.265780 O
0.792714 0.601436 0.012877 O
0.286692 0.507575 0.112018 O
0.044423 0.782201 0.607810 O
