Ca1 Co4 S6 O24
1.0
7.503278 0.179236 4.607265
2.679313 6.992457 4.621360
0.286427 0.168498 8.785216
Ca Co S O
1 4 6 24
direct
0.374355 0.688658 0.553544 Ca
0.646348 0.643329 0.650504 Co
0.143236 0.146748 0.144556 Co
0.845266 0.844876 0.848179 Co
0.353230 0.351418 0.350048 Co
0.954958 0.250132 0.530580 S
0.454932 0.039645 0.746874 S
0.540671 0.959828 0.243744 S
0.747647 0.451014 0.044649 S
0.247383 0.536173 0.954262 S
0.040437 0.749149 0.458958 S
0.392105 0.596181 0.759897 O
0.931721 0.295581 0.039144 O
0.781814 0.404094 0.584278 O
0.045801 0.928473 0.304869 O
0.600658 0.768719 0.390649 O
0.319463 0.028265 0.944390 O
0.677460 0.961984 0.050077 O
0.215815 0.591960 0.410836 O
0.061753 0.690000 0.956428 O
0.389114 0.233392 0.608669 O
0.953808 0.064755 0.685180 O
0.599121 0.399505 0.235328 O
0.963390 0.257312 0.356155 O
0.463438 0.894128 0.705332 O
0.346714 0.986042 0.271498 O
0.698496 0.482867 0.893535 O
0.248115 0.361939 0.973474 O
0.874600 0.724353 0.499491 O
0.123748 0.267979 0.498890 O
0.646294 0.005590 0.725538 O
0.528275 0.109784 0.279083 O
0.751414 0.624810 0.021569 O
0.294175 0.508874 0.103540 O
0.036135 0.744733 0.631769 O
