Ca1 V4 P6 O24
1.0
2.606182 6.952290 4.511745
0.275568 0.177626 8.715953
7.423653 0.165303 4.538741
Ca V P O
1 4 6 24
direct
0.474461 0.553789 0.494519 Ca
0.644490 0.644876 0.642618 V
0.137864 0.140712 0.145124 V
0.850940 0.850219 0.857898 V
0.350168 0.350577 0.353641 V
0.250508 0.525937 0.960161 P
0.035243 0.744744 0.468548 P
0.959487 0.249221 0.528995 P
0.462531 0.031978 0.747872 P
0.530899 0.963692 0.245607 P
0.746302 0.465634 0.036953 P
0.599398 0.762522 0.399995 O
0.307373 0.025056 0.946962 O
0.400693 0.587736 0.757803 O
0.946599 0.307922 0.019052 O
0.763143 0.402524 0.595355 O
0.029749 0.948979 0.310368 O
0.971118 0.048036 0.683858 O
0.593543 0.396250 0.233597 O
0.687146 0.976602 0.044677 O
0.233274 0.595253 0.398995 O
0.048673 0.685950 0.965054 O
0.409295 0.235764 0.592786 O
0.254917 0.333988 0.990214 O
0.872985 0.705949 0.491776 O
0.972832 0.269096 0.337075 O
0.484529 0.880116 0.693645 O
0.340269 -0.024869 0.265325 O
0.691931 0.509974 0.871453 O
0.298105 0.502858 0.117131 O
0.018094 0.727943 0.659350 O
0.123507 0.295456 0.498425 O
0.660084 0.995049 0.742519 O
0.498224 0.122198 0.297543 O
0.731575 0.650149 0.031879 O
