Fe4 P8 O24
1.0
-5.236313 -4.182500 2.871551
5.236313 -4.182500 -2.871551
5.236313 4.182500 7.060449
Fe P O
4 8 24
direct
0.500000 0.500000 0.500000 Fe2+
0.500000 1.000000 0.000000 Fe2+
0.298900 0.548900 0.750000 Fe2+
0.701100 0.451100 0.250000 Fe2+
0.500900 0.810700 0.302800 P5+
0.007900 0.198100 0.197200 P5+
0.499100 0.189300 0.697200 P5+
0.992100 0.801900 0.802800 P5+
0.201400 0.245400 0.976600 P5+
0.768800 0.224800 0.523400 P5+
0.798600 0.754600 0.023400 P5+
0.231200 0.775200 0.476600 P5+
0.039400 0.037900 0.841700 O2-
0.696200 0.197700 0.658300 O2-
0.960600 0.962100 0.158300 O2-
0.303800 0.802300 0.341700 O2-
0.943800 0.732100 0.938500 O2-
0.293600 0.005300 0.561500 O2-
0.056200 0.267900 0.061500 O2-
0.706400 0.994700 0.438500 O2-
0.802700 0.695200 0.654100 O2-
0.541100 0.148600 0.845900 O2-
0.197300 0.304800 0.345900 O2-
0.458900 0.851400 0.154100 O2-
0.195800 0.781500 0.818700 O2-
0.462800 0.377100 0.681300 O2-
0.804200 0.218500 0.181300 O2-
0.537200 0.622900 0.318700 O2-
0.612000 0.785900 0.917900 O2-
0.368000 0.694100 0.582100 O2-
0.388000 0.214100 0.082100 O2-
0.632000 0.305900 0.417900 O2-
0.755200 0.585400 0.089600 O2-
0.995800 0.665600 0.410400 O2-
0.244800 0.414600 0.910400 O2-
0.004200 0.334400 0.589600 O2-
