Ti4 P4                                  
   1.00000000000000     
     3.5173134517326154   -0.0000040648913255   -0.0000001069407541
    -1.7586602460048637    3.0460807219608457    0.0000000823632305
    -0.0000003576258704    0.0000001105622542   11.7769102731762150
   Ti   P 
     4     4
Direct
  0.3333334071413887  0.6666665080788263  0.3831428545757305
  0.6666665505461893  0.3333335022195243  0.6168560802598293
  0.6666665377395873  0.3333334888032340  0.8831459183275072
  0.3333334661800791  0.6666664703156044  0.1168549533622496
  0.0000000037522980  0.9999999985463148  0.5000002307916915
  0.0000000092007255  0.0000000078396951  0.9999992922181278
  0.3333330122618037  0.6666670045008374  0.7500006743017735
  0.6666670131779213  0.3333330196959636  0.2499999961630834
 
  0.00000000E+00  0.00000000E+00  0.00000000E+00
  0.00000000E+00  0.00000000E+00  0.00000000E+00
  0.00000000E+00  0.00000000E+00  0.00000000E+00
  0.00000000E+00  0.00000000E+00  0.00000000E+00
  0.00000000E+00  0.00000000E+00  0.00000000E+00
  0.00000000E+00  0.00000000E+00  0.00000000E+00
  0.00000000E+00  0.00000000E+00  0.00000000E+00
  0.00000000E+00  0.00000000E+00  0.00000000E+00
