Ca1 V4 P6 O24
1.0
2.541646 7.020386 4.454953
0.199670 0.134974 8.711173
7.463379 0.099035 4.487348
Ca V P O
1 4 6 24
direct
0.312572 0.785432 0.576899 Ca
0.647985 0.640237 0.644814 V
0.133469 0.143517 0.142438 V
0.845294 0.850520 0.858837 V
0.357898 0.351860 0.354151 V
0.249415 0.527278 0.962387 P
0.034366 0.746190 0.466988 P
0.959453 0.253103 0.522322 P
0.456921 0.030577 0.747975 P
0.535855 0.969347 0.243029 P
0.746900 0.461149 0.041869 P
0.581428 0.779540 0.412287 O
0.301223 0.044567 0.936421 O
0.411810 0.568559 0.770198 O
0.930768 0.287034 0.036643 O
0.789518 0.424546 0.568883 O
0.059474 0.929606 0.293549 O
0.939712 0.067297 0.693135 O
0.581066 0.421143 0.225314 O
0.693169 0.960360 0.053525 O
0.205946 0.572045 0.422051 O
0.067477 0.708207 0.938649 O
0.427218 0.222114 0.582661 O
0.223763 0.350871 0.995795 O
0.850932 0.736801 0.502559 O
0.966591 0.252280 0.344555 O
0.463721 0.874700 0.709707 O
0.341142 -0.005431 0.258369 O
0.696345 0.516459 0.867836 O
0.289425 0.499776 0.125319 O
0.031731 0.749289 0.641158 O
0.146879 0.253750 0.495568 O
0.654116 0.972248 0.758984 O
0.514592 0.133488 0.279736 O
0.769530 0.630818 0.024029 O
