Ca1 Ni4 S6 O24
1.0
7.497905 0.283140 4.330494
2.795400 6.842891 4.656574
0.649202 0.275207 8.776094
Ca Ni S O
1 4 6 24
direct
0.434650 0.593236 0.523341 Ca
0.646079 0.645509 0.644117 Ni
0.144436 0.149670 0.152495 Ni
0.847318 0.843255 0.842363 Ni
0.353504 0.350078 0.350876 Ni
0.949878 0.245330 0.540888 S
0.455492 0.035450 0.752899 S
0.539727 0.961494 0.239335 S
0.753079 0.453169 0.042321 S
0.241705 0.538947 0.955715 S
0.044943 0.750956 0.451223 S
0.378908 0.612254 0.753735 O
0.952999 0.308027 0.023611 O
0.761043 0.384510 0.616430 O
0.030334 0.949559 0.305818 O
0.613248 0.757077 0.381228 O
0.322738 1.017710 0.951298 O
0.668880 0.980365 0.039367 O
0.230555 0.609014 0.380749 O
0.039304 0.683167 0.973692 O
0.385286 0.240041 0.612195 O
0.971657 0.040693 0.685461 O
0.614357 0.385648 0.242263 O
0.950868 0.274147 0.358955 O
0.471525 0.892414 0.705187 O
0.339155 0.975015 0.281769 O
0.702652 0.479735 0.896059 O
0.264477 0.349300 0.975164 O
0.883171 0.722299 0.482835 O
0.111303 0.275586 0.511304 O
0.652645 0.014250 0.719805 O
0.521440 0.106863 0.284224 O
0.735593 0.640201 0.020889 O
0.289939 0.514891 0.101861 O
0.046255 0.722446 0.632814 O
