Ca2 Cr2 O8                              
   1.00000000000000     
     3.6164816366202390    3.6165781757148245    3.1305855531426143
    -3.6165031648405388   -3.6165506819992128    3.1305784607912330
     3.6164627252461070   -3.6165377261712148   -3.1306113088026319
   Ca   Cr   O 
     2     2     8
Direct
  0.2500036920001278  0.7500001380644932  0.5000045590661131
  0.0000057982937349  0.9999998287313261  0.0000047569979529
  0.7500104155882212  0.2500011727921958  0.5000083046638579
  0.5000086548964120  0.4999988768037937  0.0000108129942546
  0.7698100912651569  0.0897035470974785  0.6801081886358631
  0.4095518957667963  0.0896679797554896  0.3198848231420044
  0.8404087612323110  0.6602977357632227  0.1801097552550743
  0.4802171681172851  0.6603303777979690  0.8198850730127489
  0.9103099657131040  0.5904276784166314  0.6801083339432594
  0.9103095022649512  0.2302022992271660  0.3198827791308432
  0.3396821380542505  0.5197988986995057  0.1801102849624954
  0.3396819168076561  0.1595714668507355  0.8198823281955399
 
  0.00000000E+00  0.00000000E+00  0.00000000E+00
  0.00000000E+00  0.00000000E+00  0.00000000E+00
  0.00000000E+00  0.00000000E+00  0.00000000E+00
  0.00000000E+00  0.00000000E+00  0.00000000E+00
  0.00000000E+00  0.00000000E+00  0.00000000E+00
  0.00000000E+00  0.00000000E+00  0.00000000E+00
  0.00000000E+00  0.00000000E+00  0.00000000E+00
  0.00000000E+00  0.00000000E+00  0.00000000E+00
  0.00000000E+00  0.00000000E+00  0.00000000E+00
  0.00000000E+00  0.00000000E+00  0.00000000E+00
  0.00000000E+00  0.00000000E+00  0.00000000E+00
  0.00000000E+00  0.00000000E+00  0.00000000E+00
