Ca1 Fe4 P6 O24                          
   1.00000000000000     
     2.6979039999999999    6.9978710000000000    4.6343310000000004
     0.3376050000000000    0.2653520000000000    8.8010479999999998
     7.4183979999999998    0.2908490000000000    4.6099009999999998
   Ca   Fe   P    O 
     1     4     6    24
Direct
  0.2609688328761208  0.8040061445787917  0.5825579438215251
  0.6582899641297404  0.6376267575717838  0.6403766694453732
  0.1452552303858804  0.1551818607896126  0.1433406801950654
  0.8331872181027946  0.8412308795596831  0.8510057789339585
  0.3591689676620280  0.3486689186145829  0.3631802313858878
  0.2418187144480166  0.5213616547278438  0.9776000346542643
  0.0297058339097803  0.7579510949663949  0.4547400644891430
  0.9687126103802427  0.2425875071506661  0.5234280045064181
  0.4428419816404707  0.0237284620024074  0.7643189537403019
  0.5455285205292775  0.9783597693816196  0.2255306901771799
  0.7574439866752239  0.4555296325700774  0.0439781461531670
  0.5842588369731844  0.7827442677890581  0.3943964733821278
  0.3031225452237786  0.0094726441978222  0.9795330676076428
  0.4188123075373002  0.5619068304044287  0.7911863903087024
  0.9674223692239952  0.2999313225818021  0.0219765169770198
  0.7850970468560632  0.4014834695341253  0.5877773736833757
  0.0258655397442126  0.9693571045632511  0.3315828433651590
  0.9566642761464820  0.0356615739773374  0.6588503495909457
  0.6053653700533667  0.3940789223401313  0.2417564144577238
  0.6962488638247584  0.9739237855790729  0.0189227046355667
  0.2309499295017943  0.6098170584731879  0.3918315554967610
  0.0591914493412362  0.6998348666607062  0.9329724316856207
  0.3862560287638472  0.2282641576976767  0.6178517838457166
  0.2636608600984933  0.3334175425410289  0.9749087312313012
  0.8645984529677141  0.7421900986992889  0.4636105191935527
  0.9883906896800596  0.2888206887238811  0.3122772639862641
  0.4551853773536819  0.8711042308125173  0.7234486767970764
  0.3393271781136264  1.0044191094937813  0.2558007598423100
  0.7273011095636607  0.5022943908977255  0.8676213802823860
  0.2429910677635528  0.4982029270902316  0.1591488940198161
  0.0053428718088348  0.7128668456193642  0.6692278088725855
  0.1538356649536829  0.2232702219298839  0.5168356717532286
  0.6536609219603697  0.9811754687653897  0.7386933407269222
  0.5355331215533237  0.1425203919743274  0.2447465252034914
  0.7413437165922016  0.6465775665949332  0.0378430870625628
 
             NaN             NaN             NaN
             NaN             NaN             NaN
             NaN             NaN             NaN
             NaN             NaN             NaN
             NaN             NaN             NaN
             NaN             NaN             NaN
             NaN             NaN             NaN
             NaN             NaN             NaN
             NaN             NaN             NaN
             NaN             NaN             NaN
             NaN             NaN             NaN
             NaN             NaN             NaN
             NaN             NaN             NaN
             NaN             NaN             NaN
             NaN             NaN             NaN
             NaN             NaN             NaN
             NaN             NaN             NaN
             NaN             NaN             NaN
             NaN             NaN             NaN
             NaN             NaN             NaN
             NaN             NaN             NaN
             NaN             NaN             NaN
             NaN             NaN             NaN
             NaN             NaN             NaN
             NaN             NaN             NaN
             NaN             NaN             NaN
             NaN             NaN             NaN
             NaN             NaN             NaN
             NaN             NaN             NaN
             NaN             NaN             NaN
             NaN             NaN             NaN
             NaN             NaN             NaN
             NaN             NaN             NaN
             NaN             NaN             NaN
             NaN             NaN             NaN
