Ca1 Fe4 P6 O24
1.0
2.697904 6.997871 4.634331
0.337605 0.265352 8.801048
7.418398 0.290849 4.609901
Ca Fe P O
1 4 6 24
direct
0.313643 0.784531 0.596831 Ca
0.656579 0.637511 0.640908 Fe
0.146168 0.150725 0.147249 Fe
0.839210 0.840545 0.848342 Fe
0.357730 0.353907 0.354898 Fe
0.238587 0.526774 0.971794 P
0.035458 0.758158 0.456877 P
0.956926 0.248003 0.525041 P
0.451959 0.027248 0.760982 P
0.535812 0.973133 0.231882 P
0.762492 0.451114 0.036845 P
0.585725 0.779961 0.396390 O
0.316747 0.012132 0.976904 O
0.402124 0.581887 0.779004 O
0.973020 0.300555 0.016403 O
0.768691 0.406261 0.583669 O
0.022060 0.971119 0.317765 O
0.949750 0.041988 0.670664 O
0.610655 0.390558 0.236915 O
0.679111 0.972857 0.023380 O
0.233119 0.608511 0.389868 O
0.043008 0.697677 0.953875 O
0.388426 0.228535 0.613014 O
0.263722 0.333293 0.979665 O
0.866965 0.734839 0.479701 O
0.979929 0.285467 0.316778 O
0.459039 0.870517 0.729240 O
0.324924 0.995878 0.276339 O
0.729529 0.486192 0.867403 O
0.250668 0.505266 0.146998 O
0.020970 0.721947 0.662445 O
0.134259 0.243007 0.518537 O
0.664165 -0.013668 0.725186 O
0.521978 0.138880 0.252800 O
0.741050 0.647911 0.022887 O
