Sulfur trioxide                         
   1.00000000000000     
     5.1270134748212133   -0.0000000687991607   -0.0000004140870414
    -0.0000001630150797   10.6280392340787557   -0.0000014079514190
    -0.0000010154540299   -0.0000016400297418   12.2665559928041326
   S    O 
    12    36
Direct
  0.2077630033743461  0.1264689976935003  0.0835488375773252
  0.7077630426118162  0.8735309465009919  0.9164511822504053
  0.2077630756706768  0.6264691423945550  0.4164510990944592
  0.7077631450061546  0.3735308862752333  0.5835489171712993
  0.0412118947118429  0.3053727029383992  0.9234774918724611
  0.5412118223316611  0.6946272469073520  0.0765224817233445
  0.0412120709549555  0.8053728076606461  0.5765224908331135
  0.5412120177305511  0.1946272174909467  0.4234775005639264
  0.9917233797323419  0.3617132335208666  0.1495481955986833
  0.4917235216008393  0.6382867242646242  0.8504517898926949
  0.9917234586754162  0.8617133275269495  0.3504518647752093
  0.4917233801840553  0.1382867480550374  0.6495481661421820
  0.1329776423719267  0.0019446125096749  0.1023645335392303
  0.6329776827823608  0.9980553316039789  0.8976354809446789
  0.1329775226248628  0.5019448208115875  0.3976353383643740
  0.6329776438216825  0.4980552078912410  0.6023646434335177
  0.4645846445466546  0.1710429344761906  0.0868313398962428
  0.9645847217005894  0.8289570611087598  0.9131687464154652
  0.4645848485188750  0.6710429225858476  0.4131686617490757
  0.9645848734283149  0.3289570547926459  0.5868313881646259
  0.0735457960412376  0.1621663138939056  0.9673634605493007
  0.5735457770013710  0.8378336246048548  0.0326364899013427
  0.0735460102309347  0.6621664758795163  0.5326364407644206
  0.5735460038473974  0.3378335572842133  0.4673635518718484
  0.8622007878079998  0.2970020559572433  0.8381781265352117
  0.3622007125437818  0.7029978941599850  0.1618218073463211
  0.8622011754399779  0.7970022494287434  0.6618218621419061
  0.3622010652936396  0.2029977853124549  0.3381781138119280
  0.2867430118587535  0.3627851186084996  0.9166937788752421
  0.7867429960767396  0.6372148857366753  0.0833062492224883
  0.2867433779824609  0.8627850889337196  0.5833061462521059
  0.7867432917706196  0.1372149181775200  0.4166938662363435
  0.8777080328821896  0.3630167028593050  0.0252648315504800
  0.3777080367136705  0.6369832624044776  0.9747351089139613
  0.8777081085763143  0.8630167851780683  0.4747351836276721
  0.3777080774610724  0.1369832309609365  0.5252648146666345
  0.2366293024092130  0.4197977589593123  0.1514949806788906
  0.7366294631732586  0.5802022177157227  0.8485050835815358
  0.2366294411590601  0.9197978203248169  0.3485051032092059
  0.7366293906744730  0.0802022803259277  0.6514949244735249
  0.7813579577323679  0.3915748241317232  0.2167726902602567
  0.2813581358656450  0.6084250797529336  0.7832272627914918
  0.7813581508096092  0.8915749559659432  0.2832273126250300
  0.2813580951852046  0.1084251480239473  0.7167727073214110
  0.0218534741471714  0.2097679913175128  0.1615488129314002
  0.5218536326151835  0.7902319338572994  0.8384511302015980
  0.0218536252103192  0.7097681339699022  0.3384511534707642
  0.5218536111104441  0.2902319612657962  0.6615488441853756
 
  0.00000000E+00  0.00000000E+00  0.00000000E+00
  0.00000000E+00  0.00000000E+00  0.00000000E+00
  0.00000000E+00  0.00000000E+00  0.00000000E+00
  0.00000000E+00  0.00000000E+00  0.00000000E+00
  0.00000000E+00  0.00000000E+00  0.00000000E+00
  0.00000000E+00  0.00000000E+00  0.00000000E+00
  0.00000000E+00  0.00000000E+00  0.00000000E+00
  0.00000000E+00  0.00000000E+00  0.00000000E+00
  0.00000000E+00  0.00000000E+00  0.00000000E+00
  0.00000000E+00  0.00000000E+00  0.00000000E+00
  0.00000000E+00  0.00000000E+00  0.00000000E+00
  0.00000000E+00  0.00000000E+00  0.00000000E+00
  0.00000000E+00  0.00000000E+00  0.00000000E+00
  0.00000000E+00  0.00000000E+00  0.00000000E+00
  0.00000000E+00  0.00000000E+00  0.00000000E+00
  0.00000000E+00  0.00000000E+00  0.00000000E+00
  0.00000000E+00  0.00000000E+00  0.00000000E+00
  0.00000000E+00  0.00000000E+00  0.00000000E+00
  0.00000000E+00  0.00000000E+00  0.00000000E+00
  0.00000000E+00  0.00000000E+00  0.00000000E+00
  0.00000000E+00  0.00000000E+00  0.00000000E+00
  0.00000000E+00  0.00000000E+00  0.00000000E+00
  0.00000000E+00  0.00000000E+00  0.00000000E+00
  0.00000000E+00  0.00000000E+00  0.00000000E+00
  0.00000000E+00  0.00000000E+00  0.00000000E+00
  0.00000000E+00  0.00000000E+00  0.00000000E+00
  0.00000000E+00  0.00000000E+00  0.00000000E+00
  0.00000000E+00  0.00000000E+00  0.00000000E+00
  0.00000000E+00  0.00000000E+00  0.00000000E+00
  0.00000000E+00  0.00000000E+00  0.00000000E+00
  0.00000000E+00  0.00000000E+00  0.00000000E+00
  0.00000000E+00  0.00000000E+00  0.00000000E+00
  0.00000000E+00  0.00000000E+00  0.00000000E+00
  0.00000000E+00  0.00000000E+00  0.00000000E+00
  0.00000000E+00  0.00000000E+00  0.00000000E+00
  0.00000000E+00  0.00000000E+00  0.00000000E+00
  0.00000000E+00  0.00000000E+00  0.00000000E+00
  0.00000000E+00  0.00000000E+00  0.00000000E+00
  0.00000000E+00  0.00000000E+00  0.00000000E+00
  0.00000000E+00  0.00000000E+00  0.00000000E+00
  0.00000000E+00  0.00000000E+00  0.00000000E+00
  0.00000000E+00  0.00000000E+00  0.00000000E+00
  0.00000000E+00  0.00000000E+00  0.00000000E+00
  0.00000000E+00  0.00000000E+00  0.00000000E+00
  0.00000000E+00  0.00000000E+00  0.00000000E+00
  0.00000000E+00  0.00000000E+00  0.00000000E+00
  0.00000000E+00  0.00000000E+00  0.00000000E+00
  0.00000000E+00  0.00000000E+00  0.00000000E+00
