Ca4 Co8 O16                             
   1.00000000000000     
     9.0129961389947386   -0.0019848325156202    0.0076977101040247
    -0.0038390247566881    3.0591594862973333    0.0000995002530336
     0.0087020176137603   -0.0007613810891931   10.3706426233788207
   Ca   Co   O 
     4     8    16
Direct
  0.2570836371777290  0.2413629681093639  0.8411992649885676
  0.7564087658130276  0.2616653609531809  0.6552747694266117
  0.7444556777689399  0.7409706870527586  0.1572397092010505
  0.2425535765508542  0.7648549803583293  0.3456393278327425
  0.9195887590884411  0.2420512841210041  0.3944122525835141
  0.4218089430924294  0.2486051000426528  0.1067353077941675
  0.0797544510896984  0.7444397531439080  0.6056048613501872
  0.5774258254146218  0.7493238848213508  0.8950451142754332
  0.9318729077913304  0.2478923037168528  0.8906792974473277
  0.4383125351399926  0.2613057704366284  0.6089664599500750
  0.0686471869427905  0.7469900067194786  0.1091904555291023
  0.5646318150898679  0.7562632996941474  0.3890199236542955
  0.7138330672937983  0.2182838776380223  0.3422204088987471
  0.2147789072386104  0.2497493401187967  0.1595020448257927
  0.2851464667775758  0.7236434781612218  0.6566229383612452
  0.7854398252734924  0.7495581345496163  0.8413944555305406
  0.6140344428626179  0.2468831428654283  0.0263328305434385
  0.1130664801495271  0.2481038520633732  0.4727511086874330
  0.3857223039693238  0.7466126526065295  0.9752675688039929
  0.8856995402230083  0.7463383978929414  0.5271613268873665
  0.0186088647689431  0.2425594605542329  0.7215151329290848
  0.5165368506586745  0.2508717337339306  0.7796262670690410
  0.9808050942597930  0.7415744674938978  0.2782738079176781
  0.4827395887204702  0.7514421071891420  0.2220369339859474
  0.9162650713930276  0.2439506743275359  0.0700269114662504
  0.4172969172513135  0.2976566525457258  0.4297560824962119
  0.0848379509783399  0.7445094753444508  0.9299845413213319
  0.5826445472217614  0.7925371537454922  0.5685208962428163
 
  0.00000000E+00  0.00000000E+00  0.00000000E+00
  0.00000000E+00  0.00000000E+00  0.00000000E+00
  0.00000000E+00  0.00000000E+00  0.00000000E+00
  0.00000000E+00  0.00000000E+00  0.00000000E+00
  0.00000000E+00  0.00000000E+00  0.00000000E+00
  0.00000000E+00  0.00000000E+00  0.00000000E+00
  0.00000000E+00  0.00000000E+00  0.00000000E+00
  0.00000000E+00  0.00000000E+00  0.00000000E+00
  0.00000000E+00  0.00000000E+00  0.00000000E+00
  0.00000000E+00  0.00000000E+00  0.00000000E+00
  0.00000000E+00  0.00000000E+00  0.00000000E+00
  0.00000000E+00  0.00000000E+00  0.00000000E+00
  0.00000000E+00  0.00000000E+00  0.00000000E+00
  0.00000000E+00  0.00000000E+00  0.00000000E+00
  0.00000000E+00  0.00000000E+00  0.00000000E+00
  0.00000000E+00  0.00000000E+00  0.00000000E+00
  0.00000000E+00  0.00000000E+00  0.00000000E+00
  0.00000000E+00  0.00000000E+00  0.00000000E+00
  0.00000000E+00  0.00000000E+00  0.00000000E+00
  0.00000000E+00  0.00000000E+00  0.00000000E+00
  0.00000000E+00  0.00000000E+00  0.00000000E+00
  0.00000000E+00  0.00000000E+00  0.00000000E+00
  0.00000000E+00  0.00000000E+00  0.00000000E+00
  0.00000000E+00  0.00000000E+00  0.00000000E+00
  0.00000000E+00  0.00000000E+00  0.00000000E+00
  0.00000000E+00  0.00000000E+00  0.00000000E+00
  0.00000000E+00  0.00000000E+00  0.00000000E+00
  0.00000000E+00  0.00000000E+00  0.00000000E+00
