Ca1 V4 S6 O24                           
   1.00000000000000     
     7.4724300000000001   -0.0752560000000000    4.8800780000000001
     2.3719090000000000    6.7134020000000003    5.3132549999999998
     0.0044970000000000   -0.5905450000000000    8.9220720000000000
   Ca   V    S    O 
     1     4     6    24
Direct
  0.2508286605686351  0.8810999612239929  0.6128759342426227
  0.6503440833745401  0.6396014734898782  0.6539930108174944
  0.1401264189553429  0.1424572340219582  0.1429046561734241
  0.8448649197259004  0.8396813692987628  0.8437915240705536
  0.3652168840294489  0.3473256623472608  0.3475439893206614
  0.9546894166468326  0.2554145142118319  0.5202588203246569
  0.4539965295027893  0.0324488005119641  0.7465176465990070
  0.5414326932695175  0.9614619977942465  0.2410522520409707
  0.7524129462121711  0.4376475004106440  0.0457037930540730
  0.2485893681713586  0.5308566552789971  0.9576366231579785
  0.0522469105488445  0.7442998181765292  0.4584547591685161
  0.4106395485597068  0.5685550870064470  0.7753889514001695
  0.9316321807511563  0.2740217676137933  0.0343663988829481
  0.7996479522021801  0.4194269063138660  0.5659800785708061
  0.0429377629690678  0.9267264424088169  0.2985785179625926
  0.5851676471046999  0.7823593022434508  0.4016343456349231
  0.3322636333748042  0.0183739873361371  0.9437938494111368
  0.6741410774191414  0.9459276575916171  0.0576674920585118
  0.2245611279278588  0.5929563281001301  0.3999487516084685
  0.0818383764298453  0.7107248374295808  0.9302114679950650
  0.3833069287956865  0.2207867719647755  0.6139156571214009
  0.9291169127976927  0.0774471032463610  0.6845057157148928
  0.6068847220631047  0.3954308066307208  0.2368209463329942
  0.9627096613267186  0.2581869922697164  0.3515079465005856
  0.4500102477826534  0.8866198608883333  0.7123035306011681
  0.3446473926723109  0.9953834057589980  0.2716381956206366
  0.6832475717288871  0.4802361240564155  0.9066899889862986
  0.2223952375800104  0.3723755378079862  0.9780977600618828
  0.8829348211182255  0.7056744587042186  0.5293455114323415
  0.1406016867737445  0.2428295258746061  0.4922595050506444
  0.6502483125381472  0.9868501086017786  0.7146737908109294
  0.5380729796278693  0.1163127368951316  0.2595495192485629
  0.7841871092749210  0.6022602727544171  0.0086581286182179
  0.2815895004256720  0.4977032928850108  0.1157396563936707
  0.0601073994427588  0.7580849491713274  0.6135564030675571
 
             NaN             NaN             NaN
             NaN             NaN             NaN
             NaN             NaN             NaN
             NaN             NaN             NaN
             NaN             NaN             NaN
             NaN             NaN             NaN
             NaN             NaN             NaN
             NaN             NaN             NaN
             NaN             NaN             NaN
             NaN             NaN             NaN
             NaN             NaN             NaN
             NaN             NaN             NaN
             NaN             NaN             NaN
             NaN             NaN             NaN
             NaN             NaN             NaN
             NaN             NaN             NaN
             NaN             NaN             NaN
             NaN             NaN             NaN
             NaN             NaN             NaN
             NaN             NaN             NaN
             NaN             NaN             NaN
             NaN             NaN             NaN
             NaN             NaN             NaN
             NaN             NaN             NaN
             NaN             NaN             NaN
             NaN             NaN             NaN
             NaN             NaN             NaN
             NaN             NaN             NaN
             NaN             NaN             NaN
             NaN             NaN             NaN
             NaN             NaN             NaN
             NaN             NaN             NaN
             NaN             NaN             NaN
             NaN             NaN             NaN
             NaN             NaN             NaN
