Ca1 V4 S6 O24                           
   1.00000000000000     
     7.4724300000000001   -0.0752560000000000    4.8800780000000001
     2.3719090000000000    6.7134020000000003    5.3132549999999998
     0.0044970000000000   -0.5905450000000000    8.9220720000000000
   Ca   V    S    O 
     1     4     6    24
Direct
  0.2491176639867797  0.8811017229239295  0.6135509112217072
  0.6510980158519114  0.6392778250314124  0.6533772425776204
  0.1409168261068237  0.1424216388341089  0.1423199147819439
  0.8445668028745058  0.8394223475123523  0.8446748472066846
  0.3649803509447293  0.3466006963962635  0.3480850517283129
  0.9533988618375528  0.2557249960923149  0.5191705896209258
  0.4520205846443880  0.0335005111962725  0.7488721754931892
  0.5442495615862293  0.9616405398005005  0.2362805919592020
  0.7548015752822952  0.4378828168885548  0.0461388783728340
  0.2488467097500376  0.5312181697125097  0.9590401277217487
  0.0543027617390199  0.7479458177346311  0.4563803166445710
  0.4100802339819909  0.5698555188859737  0.7741811908469268
  0.9321373336542594  0.2745144398082394  0.0347460681331073
  0.7997579126481561  0.4185389832433968  0.5658089705406372
  0.0445815491558696  0.9262131904966870  0.2976458419025270
  0.5847186879108531  0.7819925197128290  0.4009408417191145
  0.3345061095648312  0.0176972732402900  0.9428011098065353
  0.6707893190494376  0.9473524037945921  0.0598756576519926
  0.2253410630033258  0.5902307549389212  0.4014075209488219
  0.0807009585806403  0.7111307041208791  0.9298126304272603
  0.3840361510696820  0.2200909973378238  0.6150110479525633
  0.9296699874351522  0.0759559057572076  0.6856166197344932
  0.6071403005284862  0.3951338882224653  0.2381857949166479
  0.9637353400539560  0.2558823631907104  0.3520812184231640
  0.4491016554071236  0.8875141717070232  0.7129460637797242
  0.3433069421437172 -0.0043771367600327  0.2716767293193892
  0.6829805994176513  0.4794939179249860  0.9059906144907822
  0.2222631633796317  0.3727557128216085  0.9775456867876193
  0.8796664304101480  0.7066049959923174  0.5309834344450191
  0.1414795104954004  0.2422068090808270  0.4918041636699295
  0.6501365085668286  0.9877888573498761  0.7158155600240531
  0.5382327568654762  0.1160285527399299  0.2582533667166975
  0.7843855720857618  0.5997770694890096  0.0091692609183005
  0.2812071112566873  0.4985274575524596  0.1138471530595174
  0.0594167535915681  0.7598513483428707  0.6135154792426597
 
             NaN             NaN             NaN
             NaN             NaN             NaN
             NaN             NaN             NaN
             NaN             NaN             NaN
             NaN             NaN             NaN
             NaN             NaN             NaN
             NaN             NaN             NaN
             NaN             NaN             NaN
             NaN             NaN             NaN
             NaN             NaN             NaN
             NaN             NaN             NaN
             NaN             NaN             NaN
             NaN             NaN             NaN
             NaN             NaN             NaN
             NaN             NaN             NaN
             NaN             NaN             NaN
             NaN             NaN             NaN
             NaN             NaN             NaN
             NaN             NaN             NaN
             NaN             NaN             NaN
             NaN             NaN             NaN
             NaN             NaN             NaN
             NaN             NaN             NaN
             NaN             NaN             NaN
             NaN             NaN             NaN
             NaN             NaN             NaN
             NaN             NaN             NaN
             NaN             NaN             NaN
             NaN             NaN             NaN
             NaN             NaN             NaN
             NaN             NaN             NaN
             NaN             NaN             NaN
             NaN             NaN             NaN
             NaN             NaN             NaN
             NaN             NaN             NaN
