Ca2 Co4 S6 O24                          
   1.00000000000000     
     7.6858050000000002    0.0571960000000000    4.4366610000000000
     2.7324880000000000    6.9814280000000002    4.5764100000000001
     0.2944700000000000   -0.0311820000000000    8.8555290000000007
   Ca   Co   S    O 
     2     4     6    24
Direct
  0.2470241361359151  0.8269763764805497  0.5722776185340140
  0.9686729832086329  0.0230801374805507  1.0015305353262272
  0.6580296962753145  0.6228145192301068  0.6571488328515175
  0.1474871485121043  0.1476851719121348  0.1338353659541879
  0.8247683958456044  0.8529585769799864  0.8533293203629900
  0.3620990735930839  0.3611298966145202  0.3528923476885621
  0.9714413024732417  0.2406919019659375  0.5360414382641666
  0.4384267268420645  0.0388559632577467  0.7514465554131884
  0.5543091271570676  0.9597324531798090  0.2438043309861863
  0.7522573762630548  0.4460373484111805  0.0404754374163215
  0.2497549755144432  0.5434767538321136  0.9616235495283036
  0.0383653026561667  0.7469219153621403  0.4445980304399380
  0.4164943291885674  0.5545352576768868  0.7829664355147276
  0.8827875407681488  0.2526618105480498  0.1196943303594152
  0.8019616499103088  0.4093404599573540  0.5416399990045562
  0.0814719037762656  0.8942675552991016  0.2545892966328110
  0.5610423129876809  0.7969703195725636  0.4228742139197932
  0.2402255961525544  0.0988523995575598  0.8874116073858571
  0.7322755804700232  0.9071301958205684  0.0899724649857785
  0.2138823917816915  0.5821338832598630  0.4612105759659478
  0.0957978316485979  0.7339362210797863  0.9091038707845087
  0.4622172721950963  0.1965018774858556  0.5729493084974241
  0.9404101227367163  0.0762776223624094  0.7222461493662841
  0.5662775161650710  0.4848400974795598  0.1841224514890002
  0.0190479280428293  0.1702936588126395  0.3940219698927269
  0.4616665633437699  0.8713798229557442  0.7295807173093869
  0.3871494826436024  0.9883840293303098  0.2214813183403055
  0.7508917615950296  0.4346500850088366  0.8796126839640750
  0.2002292267457736  0.3898114186721399  0.0043645703152310
  0.8903663614229516  0.7014673610652190  0.4694307002987248
  0.1371433828261166  0.2602772786097096  0.5131340654321779
  0.5679986505929068  0.9882458971530782  0.8375340479200696
  0.5432290877981105  0.1289566406941050  0.2482352387182317
  0.8303011725129683  0.5880799727925958  0.9757109592516992
  0.2766524730154207  0.5321766881106472  0.1149752927716104
  0.9769788298189488  0.8258792233133502  0.5884030939006467
 
             NaN             NaN             NaN
             NaN             NaN             NaN
             NaN             NaN             NaN
             NaN             NaN             NaN
             NaN             NaN             NaN
             NaN             NaN             NaN
             NaN             NaN             NaN
             NaN             NaN             NaN
             NaN             NaN             NaN
             NaN             NaN             NaN
             NaN             NaN             NaN
             NaN             NaN             NaN
             NaN             NaN             NaN
             NaN             NaN             NaN
             NaN             NaN             NaN
             NaN             NaN             NaN
             NaN             NaN             NaN
             NaN             NaN             NaN
             NaN             NaN             NaN
             NaN             NaN             NaN
             NaN             NaN             NaN
             NaN             NaN             NaN
             NaN             NaN             NaN
             NaN             NaN             NaN
             NaN             NaN             NaN
             NaN             NaN             NaN
             NaN             NaN             NaN
             NaN             NaN             NaN
             NaN             NaN             NaN
             NaN             NaN             NaN
             NaN             NaN             NaN
             NaN             NaN             NaN
             NaN             NaN             NaN
             NaN             NaN             NaN
             NaN             NaN             NaN
             NaN             NaN             NaN
