Ca2 Co4 S6 O24                          
   1.00000000000000     
     7.6858050000000002    0.0571960000000000    4.4366610000000000
     2.7324880000000000    6.9814280000000002    4.5764100000000001
     0.2944700000000000   -0.0311820000000000    8.8555290000000007
   Ca   Co   S    O 
     2     4     6    24
Direct
  0.2493556926733635  0.8056121670607036  0.5706146594522380
  0.9649140301449098  0.0299067666113947  0.9971281291753766
  0.6619848302062972  0.6208799400282560  0.6538200734473878
  0.1475292993273051  0.1485422149317136  0.1332582319047191
  0.8170513208673227  0.8611864532374978  0.8540104065148157
  0.3661718443647246  0.3613925936752154  0.3539151510881279
  0.9711249931892790  0.2353673061660455  0.5362991178147548
  0.4348166348383727  0.0466265982607456  0.7483139400804836
  0.5529899899194430  0.9566425631813337  0.2499341974661700
  0.7538768678035481  0.4505248605041529  0.0384075955050944
  0.2563926294491253  0.5417288022668267  0.9635895077267491
  0.0340254375783858  0.7487477678094163  0.4431567801839897
  0.4201656177320591  0.5533016196601853  0.7815772254852946
  0.8857612432699162  0.2573991655184463  0.1153577017388421
  0.7967220221276844  0.3986019017187697  0.5490915023695397
  0.0726980114052393  0.8961517375561022  0.2528435168308879
  0.5657397710501020  0.7819792948739420  0.4196623435158461
  0.2367196834369882  0.0984859841773175  0.8871341498237467
  0.7273094233345221  0.9169182169159701  0.0878251799223450
  0.2150554531027257  0.5912447068458286  0.4592744913549743
  0.1016418875388625  0.7316186548560644  0.9162868153610937
  0.4538126421788158  0.2140768439056073  0.5776513794002975
  0.9463366010539047  0.0663592580857480  0.7207296675024532
  0.5718704406710841  0.4911580783707488  0.1866811562972758
  1.0181169323376442  0.1664427193585133  0.3935994726680404
  0.4662652418143983  0.8856876588323424  0.7113631058208028
  0.3833322205105206  0.9932382404057909  0.2263098344077825
  0.7408270300519383  0.4353440599760434  0.8860274280379834
  0.2042197304321787  0.3888143419742212  0.0085627130990132
  0.8967497344086763  0.6881018548904345  0.4685838852869141
  0.1325063554316035  0.2625595859635643  0.5120992600166482
  0.5614039880215833  0.9921798654247381  0.8402927577467504
  0.5438034411094782  0.1155863508829649  0.2704010482007623
  0.8376425635788816  0.5917199897875139  0.9620546039452794
  0.2945038248617045  0.5250018682743365  0.1125709087426626
  0.9639014744654499  0.8311964955537017  0.5865215057985407
 
             NaN             NaN             NaN
             NaN             NaN             NaN
             NaN             NaN             NaN
             NaN             NaN             NaN
             NaN             NaN             NaN
             NaN             NaN             NaN
             NaN             NaN             NaN
             NaN             NaN             NaN
             NaN             NaN             NaN
             NaN             NaN             NaN
             NaN             NaN             NaN
             NaN             NaN             NaN
             NaN             NaN             NaN
             NaN             NaN             NaN
             NaN             NaN             NaN
             NaN             NaN             NaN
             NaN             NaN             NaN
             NaN             NaN             NaN
             NaN             NaN             NaN
             NaN             NaN             NaN
             NaN             NaN             NaN
             NaN             NaN             NaN
             NaN             NaN             NaN
             NaN             NaN             NaN
             NaN             NaN             NaN
             NaN             NaN             NaN
             NaN             NaN             NaN
             NaN             NaN             NaN
             NaN             NaN             NaN
             NaN             NaN             NaN
             NaN             NaN             NaN
             NaN             NaN             NaN
             NaN             NaN             NaN
             NaN             NaN             NaN
             NaN             NaN             NaN
             NaN             NaN             NaN
