Ca12 Si8 O28                            
   1.00000000000000     
     9.1751117779177367   -0.0000004528910112   -5.2157758273456372
    -0.0000003288306148    8.8993098629324781    0.0000001868834347
     0.0020031678251897    0.0000001640940128    7.8631305617185507
   Ca   Si   O 
    12     8    28
Direct
  0.5087771718218050  0.4408659690497814  0.2897108483479300
  0.9912245368821360  0.9408657284870330  0.7102929987745412
  0.4912245345497226  0.5591342578511274  0.7102929955199926
  0.0087771682800479  0.0591340453530194  0.2897108416130791
  0.6680345177692928  0.9250107828873197  0.2093159685766537
  0.8319646532904486  0.4250106284058361  0.7906831512317893
  0.3319646546219772  0.0749893784572819  0.7906831476751393
  0.1680345199870956  0.5749892091324753  0.2093159698776432
  0.8394396188718360  0.5924083913478313  0.2832183956843437
  0.6605698804791160  0.0924046146754947  0.7167923376641028
  0.1605698694161788  0.4075953944710733  0.7167923231104325
  0.3394396220925984  0.9075915954288476  0.2832184064612733
  0.7963490359025158  0.2660530900574045  0.4331050873526507
  0.7036497685976144  0.7660513771956161  0.5668936348493645
  0.2036497619722581  0.7339484812822477  0.5668935736180245
  0.2963490331472798  0.2339470460143431  0.4331050262122176
  0.5902546016214671  0.2856849462617177  0.9845583946629404
  0.9097447572820627  0.7856839135634743  0.0154412914549837
  0.4097447377173680  0.7143160093460281  0.0154413311484802
  0.0902545850274592  0.2143151337044245  0.9845584325300294
  0.8568709373463292  0.1023168968451813  0.4214457131303533
  0.6431291474333705  0.6023144101204778  0.5785498072617230
  0.1431291184040404  0.8976856663779387  0.5785497992396813
  0.3568709118027655  0.3976830239485309  0.4214457128843634
  0.6784849494071210  0.2604960289205849  0.5078171850226667
  0.8215148934382555  0.7604994749780687  0.4921826562331404
  0.3215148764510261  0.7395005366556049  0.4921826536200058
  0.1784849396780430  0.2395039546201403  0.5078171910809814
  0.9118041784893904  0.3974327427504605  0.5499760114480523
  0.5881934029174971  0.8974319995457236  0.4500224163001576
  0.0881934361741017  0.6025680554824078  0.4500224629061194
  0.4118042236026795  0.1025672036002092  0.5499760629146948
  0.7032778267416404  0.3462522976066040  0.2109812714691586
  0.7967208176885379  0.8462505336677424  0.7890173502614815
  0.2967208206552598  0.6537494910474777  0.7890173485510843
  0.2032778256923251  0.1537476843657757  0.2109812681808734
  0.5986371482377706  0.1050582386366301  0.9747009856360549
  0.9013605973452314  0.6050575880999602  0.0253008895980642
  0.4013605943177510  0.8949424643289561  0.0253008951302718
  0.0986371419842627  0.3949417098181485  0.9747009930348227
  0.6443984732905292  0.3591832114380793  0.8448283970656263
  0.8556003731831581  0.8591860963571065  0.1551685779341554
  0.3556003897930395  0.6408139244029769  0.1551685332204755
  0.1443984927376860  0.1408167715824007  0.8448283530485909
  0.4273691671004585  0.3388403250433569  0.9325603800783071
  0.0726295489283331  0.8388369089175924  0.0674362671888673
  0.5726295567111563  0.6611631035402965  0.0674362693506154
  0.9273691811179461  0.1611596643291904  0.9325603918439853
 
  0.00000000E+00  0.00000000E+00  0.00000000E+00
  0.00000000E+00  0.00000000E+00  0.00000000E+00
  0.00000000E+00  0.00000000E+00  0.00000000E+00
  0.00000000E+00  0.00000000E+00  0.00000000E+00
  0.00000000E+00  0.00000000E+00  0.00000000E+00
  0.00000000E+00  0.00000000E+00  0.00000000E+00
  0.00000000E+00  0.00000000E+00  0.00000000E+00
  0.00000000E+00  0.00000000E+00  0.00000000E+00
  0.00000000E+00  0.00000000E+00  0.00000000E+00
  0.00000000E+00  0.00000000E+00  0.00000000E+00
  0.00000000E+00  0.00000000E+00  0.00000000E+00
  0.00000000E+00  0.00000000E+00  0.00000000E+00
  0.00000000E+00  0.00000000E+00  0.00000000E+00
  0.00000000E+00  0.00000000E+00  0.00000000E+00
  0.00000000E+00  0.00000000E+00  0.00000000E+00
  0.00000000E+00  0.00000000E+00  0.00000000E+00
  0.00000000E+00  0.00000000E+00  0.00000000E+00
  0.00000000E+00  0.00000000E+00  0.00000000E+00
  0.00000000E+00  0.00000000E+00  0.00000000E+00
  0.00000000E+00  0.00000000E+00  0.00000000E+00
  0.00000000E+00  0.00000000E+00  0.00000000E+00
  0.00000000E+00  0.00000000E+00  0.00000000E+00
  0.00000000E+00  0.00000000E+00  0.00000000E+00
  0.00000000E+00  0.00000000E+00  0.00000000E+00
  0.00000000E+00  0.00000000E+00  0.00000000E+00
  0.00000000E+00  0.00000000E+00  0.00000000E+00
  0.00000000E+00  0.00000000E+00  0.00000000E+00
  0.00000000E+00  0.00000000E+00  0.00000000E+00
  0.00000000E+00  0.00000000E+00  0.00000000E+00
  0.00000000E+00  0.00000000E+00  0.00000000E+00
  0.00000000E+00  0.00000000E+00  0.00000000E+00
  0.00000000E+00  0.00000000E+00  0.00000000E+00
  0.00000000E+00  0.00000000E+00  0.00000000E+00
  0.00000000E+00  0.00000000E+00  0.00000000E+00
  0.00000000E+00  0.00000000E+00  0.00000000E+00
  0.00000000E+00  0.00000000E+00  0.00000000E+00
  0.00000000E+00  0.00000000E+00  0.00000000E+00
  0.00000000E+00  0.00000000E+00  0.00000000E+00
  0.00000000E+00  0.00000000E+00  0.00000000E+00
  0.00000000E+00  0.00000000E+00  0.00000000E+00
  0.00000000E+00  0.00000000E+00  0.00000000E+00
  0.00000000E+00  0.00000000E+00  0.00000000E+00
  0.00000000E+00  0.00000000E+00  0.00000000E+00
  0.00000000E+00  0.00000000E+00  0.00000000E+00
  0.00000000E+00  0.00000000E+00  0.00000000E+00
  0.00000000E+00  0.00000000E+00  0.00000000E+00
  0.00000000E+00  0.00000000E+00  0.00000000E+00
  0.00000000E+00  0.00000000E+00  0.00000000E+00
