Ca4 V8 P8 O36                           
   1.00000000000000     
    14.3916683140304791    0.0000035050820995    0.0000180020234804
    -0.0000007753109774    6.3710961185124768   -0.0000373979903797
     0.0000073777512881    0.0002133976524966    7.2506616075490928
   Ca   V    P    O 
     4     8     8    36
Direct
  0.7208730736603428  0.2499961929817047  0.3814504095020794
  0.2208737976094639  0.2499995752442032  0.1185495641611212
  0.2791312736092735  0.7499690162233605  0.6184661395980768
  0.7791310946630290  0.7500287439253768  0.8815338156647954
  0.8762781989653874  0.7499979882971815  0.3496890376101476
  0.3762804761314413  0.7500023510996456  0.1503108417287038
  0.1237447126728384  0.2500000283631039  0.6504135541275318
  0.6237464218202220  0.2499998862346686  0.8495872065510710
  0.4999842226782434  0.4999823814025035  0.4999721776549535
  0.9999816614093575  0.0000128938967237  0.0000304917279266
  0.4999812981575573  0.9999999209394801  0.4999710541182480
  0.9999794196683780  0.4999989868904180  0.0000321438696034
  0.6892028676818214  0.7499939682656631  0.3875889778570851
  0.1892016834099550  0.7500043532638117  0.1124097991810444
  0.3107902275893792  0.2499915883749679  0.6123992578567723
  0.8107883460241680  0.2500074280449240  0.8875999267303598
  0.9324801447896220  0.2499955140613253  0.3711722254997980
  0.4324924020664653  0.2500065488516299  0.1288076436505960
  0.0675321041089134  0.7500045334210981  0.6288971515365915
  0.5675378675723621  0.7499946637164570  0.8710989400263784
  0.8657884644077924  0.4395564044697338  0.3771650179363419
  0.3657880728087903  0.0604390418542664  0.1228312745022535
  0.1342328324679301  0.9395594399846345  0.6229162198154370
  0.6342316451671479  0.5604432753972546  0.8770878515476142
  0.1342252661234227  0.5604376598306828  0.6229244723573473
  0.6342233020227255  0.9395600253187837  0.8770724484623855
  0.8657840501695020  0.0604421288850929  0.3771592298497168
  0.3657808474753423  0.4395629265452570  0.1228457215330678
  0.7611567874273391  0.7499888703728601  0.5454527491276835
  0.2611570828528684  0.7500108804217049  0.9545468075893240
  0.2388469358394758  0.2500288822074381  0.4545378883782902
  0.7388490690668732  0.2499656861683022  0.0454575756382027
  0.9979120718482619  0.7500105526782122  0.4778895957711526
  0.4979081083242960  0.7499938326138320  0.0221209785995313
  0.0021526078194114  0.2499845756609034  0.5221203069892937
  0.5021447236616083  0.2500275294009526  0.9778978859963914
  0.7501039426989919  0.7499983790966454  0.2124317443367758
  0.2501048305873326  0.7500043681646744  0.2875705198307088
  0.2498852776884704  0.2499940211265042  0.7875703469943716
  0.7498850500167507  0.2500122390577033  0.7124274806910407
  0.9459359076051399  0.7500081800918679  0.1235525443240064
  0.4459350705990914  0.7499937372637291  0.3764437207667513
  0.0540201721471050  0.2500085682871216  0.8765097977667153
  0.5540187561026073  0.2499922979338010  0.6234857782841914
  0.4802582051710473  0.2499974748850562  0.3193061008046740
  0.9802587860353142  0.2500007984588493  0.1806957220768979
  0.5197228195744472  0.7499931612104191  0.6806537599932483
  0.0197240043771316  0.7500042291396625  0.8193472989086885
  0.6283188303937735  0.5526604367719514  0.3919481761797456
  0.1283204520314669  0.9473370886354857  0.1080518345909383
  0.3716624449240484  0.0526485553636817  0.6080538546617262
  0.8716643449735031  0.4473516451421418  0.8919483216644863
  0.3716733498278870  0.4473181359908693  0.6080734552634794
  0.8716755869536286  0.0526812062277742  0.8919230696944069
  0.6283181174024506  0.9473285923098729  0.3919421233850144
  0.1283208891187826  0.5526686095340168  0.1080579670352293
 
  0.00000000E+00  0.00000000E+00  0.00000000E+00
  0.00000000E+00  0.00000000E+00  0.00000000E+00
  0.00000000E+00  0.00000000E+00  0.00000000E+00
  0.00000000E+00  0.00000000E+00  0.00000000E+00
  0.00000000E+00  0.00000000E+00  0.00000000E+00
  0.00000000E+00  0.00000000E+00  0.00000000E+00
  0.00000000E+00  0.00000000E+00  0.00000000E+00
  0.00000000E+00  0.00000000E+00  0.00000000E+00
  0.00000000E+00  0.00000000E+00  0.00000000E+00
  0.00000000E+00  0.00000000E+00  0.00000000E+00
  0.00000000E+00  0.00000000E+00  0.00000000E+00
  0.00000000E+00  0.00000000E+00  0.00000000E+00
  0.00000000E+00  0.00000000E+00  0.00000000E+00
  0.00000000E+00  0.00000000E+00  0.00000000E+00
  0.00000000E+00  0.00000000E+00  0.00000000E+00
  0.00000000E+00  0.00000000E+00  0.00000000E+00
  0.00000000E+00  0.00000000E+00  0.00000000E+00
  0.00000000E+00  0.00000000E+00  0.00000000E+00
  0.00000000E+00  0.00000000E+00  0.00000000E+00
  0.00000000E+00  0.00000000E+00  0.00000000E+00
  0.00000000E+00  0.00000000E+00  0.00000000E+00
  0.00000000E+00  0.00000000E+00  0.00000000E+00
  0.00000000E+00  0.00000000E+00  0.00000000E+00
  0.00000000E+00  0.00000000E+00  0.00000000E+00
  0.00000000E+00  0.00000000E+00  0.00000000E+00
  0.00000000E+00  0.00000000E+00  0.00000000E+00
  0.00000000E+00  0.00000000E+00  0.00000000E+00
  0.00000000E+00  0.00000000E+00  0.00000000E+00
  0.00000000E+00  0.00000000E+00  0.00000000E+00
  0.00000000E+00  0.00000000E+00  0.00000000E+00
  0.00000000E+00  0.00000000E+00  0.00000000E+00
  0.00000000E+00  0.00000000E+00  0.00000000E+00
  0.00000000E+00  0.00000000E+00  0.00000000E+00
  0.00000000E+00  0.00000000E+00  0.00000000E+00
  0.00000000E+00  0.00000000E+00  0.00000000E+00
  0.00000000E+00  0.00000000E+00  0.00000000E+00
  0.00000000E+00  0.00000000E+00  0.00000000E+00
  0.00000000E+00  0.00000000E+00  0.00000000E+00
  0.00000000E+00  0.00000000E+00  0.00000000E+00
  0.00000000E+00  0.00000000E+00  0.00000000E+00
  0.00000000E+00  0.00000000E+00  0.00000000E+00
  0.00000000E+00  0.00000000E+00  0.00000000E+00
  0.00000000E+00  0.00000000E+00  0.00000000E+00
  0.00000000E+00  0.00000000E+00  0.00000000E+00
  0.00000000E+00  0.00000000E+00  0.00000000E+00
  0.00000000E+00  0.00000000E+00  0.00000000E+00
  0.00000000E+00  0.00000000E+00  0.00000000E+00
  0.00000000E+00  0.00000000E+00  0.00000000E+00
  0.00000000E+00  0.00000000E+00  0.00000000E+00
  0.00000000E+00  0.00000000E+00  0.00000000E+00
  0.00000000E+00  0.00000000E+00  0.00000000E+00
  0.00000000E+00  0.00000000E+00  0.00000000E+00
  0.00000000E+00  0.00000000E+00  0.00000000E+00
  0.00000000E+00  0.00000000E+00  0.00000000E+00
  0.00000000E+00  0.00000000E+00  0.00000000E+00
  0.00000000E+00  0.00000000E+00  0.00000000E+00
