Fe4 P2 O10                              
   1.00000000000000     
     5.3447550715958352   -0.0000536537303664   -0.0008624511604142
    -0.0000563710588393    5.3448650399867867   -0.0008351863392687
    -2.6733711755288052   -2.6733879951861281    6.2546946372499042
   Fe   P    O 
     4     2    10
Direct
  0.9999279715826788  0.4999399485551521  0.4999901503878093
  0.5000446629321189  0.0000252937905003  0.9999712511185166
  0.5000769189064300  0.5000646299449159  0.0000216985015271
  0.4998695067270660  0.4999344510813657  0.5000075899978356
  0.1249557955865939  0.8750516489690909  0.2500094622948126
  0.8750476065809849  0.1249296848454051  0.7499881606314460
  0.1806214259542784  0.1926884316999562  0.8853735969250351
  0.1926522706134577  0.1805569853852305  0.3853263497221775
  0.1926231358624904  0.7047294748097457  0.3852408212533334
  0.7046993135995123  0.1926481869818133  0.8852655585581459
  0.8193869118226687  0.8073390468133539  0.1146474075107804
  0.8073425430178602  0.8194376872698825  0.6146733507334403
  0.8073704373423851  0.2952747743295774  0.6147614933645329
  0.2952866380572488  0.8073610869099070  0.1147176268382140
  0.3750849579907509  0.6249456067878612  0.7499796136305648
  0.6250099034234822  0.3750730618262423  0.2500258685318215
 
  0.00000000E+00  0.00000000E+00  0.00000000E+00
  0.00000000E+00  0.00000000E+00  0.00000000E+00
  0.00000000E+00  0.00000000E+00  0.00000000E+00
  0.00000000E+00  0.00000000E+00  0.00000000E+00
  0.00000000E+00  0.00000000E+00  0.00000000E+00
  0.00000000E+00  0.00000000E+00  0.00000000E+00
  0.00000000E+00  0.00000000E+00  0.00000000E+00
  0.00000000E+00  0.00000000E+00  0.00000000E+00
  0.00000000E+00  0.00000000E+00  0.00000000E+00
  0.00000000E+00  0.00000000E+00  0.00000000E+00
  0.00000000E+00  0.00000000E+00  0.00000000E+00
  0.00000000E+00  0.00000000E+00  0.00000000E+00
  0.00000000E+00  0.00000000E+00  0.00000000E+00
  0.00000000E+00  0.00000000E+00  0.00000000E+00
  0.00000000E+00  0.00000000E+00  0.00000000E+00
  0.00000000E+00  0.00000000E+00  0.00000000E+00
