Ca16 Mn12 O40                           
   1.00000000000000     
     5.2567448451595311   -0.0000008716663132   -0.0000001639395598
    -0.0000008639430738    5.2682047628204671    0.0000006258254867
    -0.0000006075876858    0.0000032329564447   26.8275150192874818
   Ca   Mn   O 
    16    12    40
Direct
  0.0040554973161093  0.4639276389286593  0.4307612361464734
  0.5040556378211818  0.0360724145234173  0.5692388949930276
  0.9959136987011874  0.9638128855119561  0.0692504857574363
  0.4959136611513770  0.5361878596717844  0.9307495069669258
  0.9959135674618196  0.5361873633204652  0.5692505268422181
  0.4959133588541746  0.9638128701964135  0.4307495673702206
  0.0040563446074273  0.0360721790591114  0.9307610276575602
  0.5040559368100261  0.4639279095299500  0.0692388259418024
  0.4940941727689321  0.0242888396436740  0.2958142385198244
  0.9940941906906744  0.4757113152052028  0.7041858028850996
  0.5058262983445800  0.5243526612141878  0.2041935968929423
  0.0058280950367120  0.9756458239222923  0.7958060234228626
  0.5058261186209521  0.9756475410453902  0.7041935980464586
  0.0058260892114035  0.5243527293991477  0.2958064432212666
  0.4940945447917855  0.4757114273365630  0.7958141523876705
  0.9940942833047828  0.0242887839369743  0.2041857858809095
  0.5000072640593771  0.4999271507775376  0.5000006869977724
  0.0000071314825334  0.0000722379999303  0.4999995262687662
  0.5000077416163080  0.0000728799940077  0.0000004758504488
  0.0000074189755281  0.4999272853221441  0.9999993237860210
  0.9990076152882850  0.9985724345123828  0.3596747813534478
  0.4990080811456536  0.5014273830818894  0.6403253191595937
  0.0008287594135936  0.4985147657934448  0.1403092135750370
  0.5008303876568334  0.0014847954189179  0.8596906489845537
  0.0008285926823390  0.0014851881847378  0.6403092119815170
  0.5008281244535908  0.4985151069694140  0.3596908778003325
  0.9990093991775169  0.5014269129648312  0.8596745968928374
  0.4990085392973498  0.9985731387090766  0.1403252526834251
  0.9375893429805444  0.0104679599300255  0.4303660012047672
  0.4375893417602228  0.4895323879860030  0.5696340736712031
  0.0624228743213777  0.5103862749864589  0.0696308746424563
  0.5624234981602001  0.9896149751144634  0.9303690569479954
  0.0624228016334811  0.9896139904610166  0.5696309781442821
  0.5624225844825261  0.5103861712327102  0.4303690605134207
  0.9375892314054752  0.4895314864058236  0.9303658973252382
  0.4375897345931250  0.0104677391468897  0.0696339440056732
  0.0411239250163860  0.9938164088469961  0.2895418104834135
  0.5411238873809339  0.5061837664463980  0.7104582148485790
  0.9588318062726131  0.4938086120220859  0.2104492504472191
  0.4588316738186151  0.0061911556713810  0.7895506840569269
  0.9588315426812599  0.0061916718306350  0.7104491727803222
  0.4588315015499447  0.4938088656689601  0.2895507879515549
  0.0411246646274961  0.5061845887851959  0.7895417154041482
  0.5411238268711003  0.9938164741919877  0.2104581644285730
  0.2883663456011547  0.2106168707751266  0.3682484987032666
  0.7883663598792339  0.2893832596622659  0.6317515166143082
  0.7117035135101375  0.7106262855407195  0.1317502786691236
  0.2117037648840068  0.7893738297021287  0.8682497857015790
  0.7117033925258411  0.7893739873605199  0.6317502858106181
  0.2117006530647103  0.7106249923930790  0.3682502604165521
  0.2883685713826978  0.2893836275281458  0.8682485119621788
  0.7883665556621509  0.2106169209672260  0.1317514816004817
  0.7126228878929979  0.7859792616580776  0.3522666907371175
  0.2126236007330249  0.7140210093109403  0.6477333384191226
  0.2874382872724155  0.2859814273986885  0.1477374638522733
  0.7874406568533061  0.2140174346346555  0.8522623278608279
  0.2874380897116708  0.2140188341754907  0.6477375292282304
  0.7874377330848077  0.2859815841134363  0.3522624994463044
  0.7126236690390897  0.7140188363044615  0.8522667819970451
  0.2126236024800860  0.7859792867216555  0.1477332896304233
  0.7920280777540185  0.2916145634369798  0.5092056222755801
  0.2920280902282784  0.2083854400927336  0.4907945118094617
  0.2081367738457445  0.7915886750857339  0.9908029138167862
  0.7081367225607735  0.7084116124265947  0.0091969554098483
  0.2081365723012283  0.7084115128114377  0.4908029958897515
  0.7081364172700759  0.7915885560983256  0.5091971230850447
  0.7920284024820390  0.2083854218509131  0.0092055519448451
  0.2920284716831603  0.2916147190501448  0.9907944699969775
 
  0.00000000E+00  0.00000000E+00  0.00000000E+00
  0.00000000E+00  0.00000000E+00  0.00000000E+00
  0.00000000E+00  0.00000000E+00  0.00000000E+00
  0.00000000E+00  0.00000000E+00  0.00000000E+00
  0.00000000E+00  0.00000000E+00  0.00000000E+00
  0.00000000E+00  0.00000000E+00  0.00000000E+00
  0.00000000E+00  0.00000000E+00  0.00000000E+00
  0.00000000E+00  0.00000000E+00  0.00000000E+00
  0.00000000E+00  0.00000000E+00  0.00000000E+00
  0.00000000E+00  0.00000000E+00  0.00000000E+00
  0.00000000E+00  0.00000000E+00  0.00000000E+00
  0.00000000E+00  0.00000000E+00  0.00000000E+00
  0.00000000E+00  0.00000000E+00  0.00000000E+00
  0.00000000E+00  0.00000000E+00  0.00000000E+00
  0.00000000E+00  0.00000000E+00  0.00000000E+00
  0.00000000E+00  0.00000000E+00  0.00000000E+00
  0.00000000E+00  0.00000000E+00  0.00000000E+00
  0.00000000E+00  0.00000000E+00  0.00000000E+00
  0.00000000E+00  0.00000000E+00  0.00000000E+00
  0.00000000E+00  0.00000000E+00  0.00000000E+00
  0.00000000E+00  0.00000000E+00  0.00000000E+00
  0.00000000E+00  0.00000000E+00  0.00000000E+00
  0.00000000E+00  0.00000000E+00  0.00000000E+00
  0.00000000E+00  0.00000000E+00  0.00000000E+00
  0.00000000E+00  0.00000000E+00  0.00000000E+00
  0.00000000E+00  0.00000000E+00  0.00000000E+00
  0.00000000E+00  0.00000000E+00  0.00000000E+00
  0.00000000E+00  0.00000000E+00  0.00000000E+00
  0.00000000E+00  0.00000000E+00  0.00000000E+00
  0.00000000E+00  0.00000000E+00  0.00000000E+00
  0.00000000E+00  0.00000000E+00  0.00000000E+00
  0.00000000E+00  0.00000000E+00  0.00000000E+00
  0.00000000E+00  0.00000000E+00  0.00000000E+00
  0.00000000E+00  0.00000000E+00  0.00000000E+00
  0.00000000E+00  0.00000000E+00  0.00000000E+00
  0.00000000E+00  0.00000000E+00  0.00000000E+00
  0.00000000E+00  0.00000000E+00  0.00000000E+00
  0.00000000E+00  0.00000000E+00  0.00000000E+00
  0.00000000E+00  0.00000000E+00  0.00000000E+00
  0.00000000E+00  0.00000000E+00  0.00000000E+00
  0.00000000E+00  0.00000000E+00  0.00000000E+00
  0.00000000E+00  0.00000000E+00  0.00000000E+00
  0.00000000E+00  0.00000000E+00  0.00000000E+00
  0.00000000E+00  0.00000000E+00  0.00000000E+00
  0.00000000E+00  0.00000000E+00  0.00000000E+00
  0.00000000E+00  0.00000000E+00  0.00000000E+00
  0.00000000E+00  0.00000000E+00  0.00000000E+00
  0.00000000E+00  0.00000000E+00  0.00000000E+00
  0.00000000E+00  0.00000000E+00  0.00000000E+00
  0.00000000E+00  0.00000000E+00  0.00000000E+00
  0.00000000E+00  0.00000000E+00  0.00000000E+00
  0.00000000E+00  0.00000000E+00  0.00000000E+00
  0.00000000E+00  0.00000000E+00  0.00000000E+00
  0.00000000E+00  0.00000000E+00  0.00000000E+00
  0.00000000E+00  0.00000000E+00  0.00000000E+00
  0.00000000E+00  0.00000000E+00  0.00000000E+00
  0.00000000E+00  0.00000000E+00  0.00000000E+00
  0.00000000E+00  0.00000000E+00  0.00000000E+00
  0.00000000E+00  0.00000000E+00  0.00000000E+00
  0.00000000E+00  0.00000000E+00  0.00000000E+00
  0.00000000E+00  0.00000000E+00  0.00000000E+00
  0.00000000E+00  0.00000000E+00  0.00000000E+00
  0.00000000E+00  0.00000000E+00  0.00000000E+00
  0.00000000E+00  0.00000000E+00  0.00000000E+00
  0.00000000E+00  0.00000000E+00  0.00000000E+00
  0.00000000E+00  0.00000000E+00  0.00000000E+00
  0.00000000E+00  0.00000000E+00  0.00000000E+00
  0.00000000E+00  0.00000000E+00  0.00000000E+00
