Fe6 P24                                 
   1.00000000000000     
     4.6308193519223497   -0.0000049749734065   -0.9311597376500234
     0.0000219181444032   13.8139098206735600   -0.0000177703241203
     0.0286739589898699    0.0000040454231092    7.0666244896237727
   Fe   P 
     6    24
Direct
  0.9999901691334918  0.4999825234106490  0.4999815489023194
  0.9999888400135424  0.0000179210061827  0.9999813839916061
  0.1265863117248589  0.3325292466822379  0.8711040336061350
  0.8734670636191438  0.8326238159630200  0.6288857878442540
  0.8734677337811987  0.6673766605125481  0.1288854276667393
  0.1265852192049183  0.1674691358676349  0.3711022684073875
  0.2140883513519062  0.5520110395500504  0.2516088663332963
  0.7859057400815658  0.0520778721399584  0.2483843637510840
  0.7859066333698949  0.4479219286482541  0.7483844429422052
  0.2140853132406381  0.9479895839210205  0.7516080694716115
  0.3523850849620055  0.3918662578359858  0.6395884832189963
  0.6475294663835169  0.8919057533602668  0.8604931802293312
  0.6475327965174139  0.6080951188126748  0.3604928589895192
  0.3523846355859179  0.1081333960930664  0.1395881557051220
  0.2802133248310178  0.6190274236941808  0.7121471928824512
  0.7198144772892678  0.1190332951596662  0.7878409906273458
  0.7198161407306864  0.3809664714843793  0.2878416813989699
  0.2802113094630069  0.8809728121945360  0.2121471544588400
  0.3688752040641216  0.0549961139946416  0.5680908728105054
  0.6311534853982017  0.5549397151145065  0.9318949758820354
  0.6311522722671913  0.9450604253929530  0.4318944572787312
  0.3688777179183759  0.4450040339838772  0.0680917155728446
  0.9016171364477279  0.2276738828243259  0.6213365986342649
  0.0984249990436898  0.7276551259876523  0.8786484497049379
  0.0984274552625531  0.7723450940782753  0.3786488608064897
  0.9016185171573052  0.2723251927142394  0.1213374581330178
  0.4819072889515580  0.2175782833467808  0.9556543252690776
  0.5180416742732625  0.7175801466465147  0.5443422434669112
  0.5180393399724919  0.7824204014388633  0.0443411102865259
  0.4819062979595287  0.2824213281410505  0.4556530417274227
 
  0.00000000E+00  0.00000000E+00  0.00000000E+00
  0.00000000E+00  0.00000000E+00  0.00000000E+00
  0.00000000E+00  0.00000000E+00  0.00000000E+00
  0.00000000E+00  0.00000000E+00  0.00000000E+00
  0.00000000E+00  0.00000000E+00  0.00000000E+00
  0.00000000E+00  0.00000000E+00  0.00000000E+00
  0.00000000E+00  0.00000000E+00  0.00000000E+00
  0.00000000E+00  0.00000000E+00  0.00000000E+00
  0.00000000E+00  0.00000000E+00  0.00000000E+00
  0.00000000E+00  0.00000000E+00  0.00000000E+00
  0.00000000E+00  0.00000000E+00  0.00000000E+00
  0.00000000E+00  0.00000000E+00  0.00000000E+00
  0.00000000E+00  0.00000000E+00  0.00000000E+00
  0.00000000E+00  0.00000000E+00  0.00000000E+00
  0.00000000E+00  0.00000000E+00  0.00000000E+00
  0.00000000E+00  0.00000000E+00  0.00000000E+00
  0.00000000E+00  0.00000000E+00  0.00000000E+00
  0.00000000E+00  0.00000000E+00  0.00000000E+00
  0.00000000E+00  0.00000000E+00  0.00000000E+00
  0.00000000E+00  0.00000000E+00  0.00000000E+00
  0.00000000E+00  0.00000000E+00  0.00000000E+00
  0.00000000E+00  0.00000000E+00  0.00000000E+00
  0.00000000E+00  0.00000000E+00  0.00000000E+00
  0.00000000E+00  0.00000000E+00  0.00000000E+00
  0.00000000E+00  0.00000000E+00  0.00000000E+00
  0.00000000E+00  0.00000000E+00  0.00000000E+00
  0.00000000E+00  0.00000000E+00  0.00000000E+00
  0.00000000E+00  0.00000000E+00  0.00000000E+00
  0.00000000E+00  0.00000000E+00  0.00000000E+00
  0.00000000E+00  0.00000000E+00  0.00000000E+00
