Ca4 Fe8 O16                             
   1.00000000000000     
     9.2213668164565004    0.0000000129490576   -0.0000000659391988
     0.0000000019446180    3.0213257969956033    0.0000000136688643
    -0.0000000727660638    0.0000000414541452   10.7238015069842572
   Ca   Fe   O 
     4     8    16
Direct
  0.7424399142473622  0.2499999881590511  0.1560385644417595
  0.2424399278362671  0.2500000063177106  0.3439614304740378
  0.2575607441624898  0.7500000003341999  0.8439653658149847
  0.7575607165455369  0.7500000016874913  0.6560346433652539
  0.5822974884410912  0.2500000008606469  0.8961692874452071
  0.0822974946750994  0.2499999995678685  0.6038306809776044
  0.4177053235417632  0.7500000006611982  0.1038279324499266
  0.9177053085769437  0.7500000009780393  0.3961720988344021
  0.5654385055513039  0.2499999886492271  0.3887708262747332
  0.0654384919882979  0.2499999762687965  0.1112292029139445
  0.4345572905966848  0.7499999819649049  0.6112302079783930
  0.9345572945869576  0.7500000369566843  0.8887697587689032
  0.7954295290545175  0.2500000101315287  0.8363846406171944
  0.2954295218667152  0.2500000007572089  0.6636153545734532
  0.2045702351676469  0.7499999927801734  0.1636220995342285
  0.7045702380086778  0.7499999970811669  0.3363779016183414
  0.8807594520978231  0.2500000026694876  0.5240107307901324
  0.3807594619331293  0.2499999988038030  0.9759892812305283
  0.1192455618472294  0.7500000058979909  0.4759833501135181
  0.6192455607023182  0.7499999958866902  0.0240166410206550
  0.9737350312048104  0.2500000061095190  0.2837592692997656
  0.4737350311006295  0.2499999965037348  0.2162407652025314
  0.0262655953357720  0.7500000030122002  0.7162407166866522
  0.5262655966082768  0.7500000036743738  0.7837592507998927
  0.5822476548616373  0.2500000026073950  0.5730938568456971
  0.0822476588118591  0.2500000009233587  0.9269061427827536
  0.4177476838076386  0.7500000021798601  0.4269085829062004
  0.9177476868415215  0.7499999985756898  0.0730914162393049
 
  0.00000000E+00  0.00000000E+00  0.00000000E+00
  0.00000000E+00  0.00000000E+00  0.00000000E+00
  0.00000000E+00  0.00000000E+00  0.00000000E+00
  0.00000000E+00  0.00000000E+00  0.00000000E+00
  0.00000000E+00  0.00000000E+00  0.00000000E+00
  0.00000000E+00  0.00000000E+00  0.00000000E+00
  0.00000000E+00  0.00000000E+00  0.00000000E+00
  0.00000000E+00  0.00000000E+00  0.00000000E+00
  0.00000000E+00  0.00000000E+00  0.00000000E+00
  0.00000000E+00  0.00000000E+00  0.00000000E+00
  0.00000000E+00  0.00000000E+00  0.00000000E+00
  0.00000000E+00  0.00000000E+00  0.00000000E+00
  0.00000000E+00  0.00000000E+00  0.00000000E+00
  0.00000000E+00  0.00000000E+00  0.00000000E+00
  0.00000000E+00  0.00000000E+00  0.00000000E+00
  0.00000000E+00  0.00000000E+00  0.00000000E+00
  0.00000000E+00  0.00000000E+00  0.00000000E+00
  0.00000000E+00  0.00000000E+00  0.00000000E+00
  0.00000000E+00  0.00000000E+00  0.00000000E+00
  0.00000000E+00  0.00000000E+00  0.00000000E+00
  0.00000000E+00  0.00000000E+00  0.00000000E+00
  0.00000000E+00  0.00000000E+00  0.00000000E+00
  0.00000000E+00  0.00000000E+00  0.00000000E+00
  0.00000000E+00  0.00000000E+00  0.00000000E+00
  0.00000000E+00  0.00000000E+00  0.00000000E+00
  0.00000000E+00  0.00000000E+00  0.00000000E+00
  0.00000000E+00  0.00000000E+00  0.00000000E+00
  0.00000000E+00  0.00000000E+00  0.00000000E+00
