Ca4 Co4 O12                             
   1.00000000000000     
     5.2305376239058816   -0.0004597815288949   -0.0001286205770756
    -0.0005118990108894    5.3748097176481284    0.0001968198377945
     0.0002683785587343   -0.0001582876857164    7.5343792846639452
   Ca   Co   O 
     4     4    12
Direct
  0.9918191811840629  0.9550723862530859  0.2500400775930629
  0.5081728389764280  0.4551547847997313  0.2499616599060346
  0.0081419327050725  0.0448492955506126  0.7499569736072687
  0.4917937225140676  0.5449176079385225  0.7500397841443416
  0.9999923142322018  0.5000506170611558  0.9999956397655083
  0.4999889143784131  0.9999301766127928  0.4999961186156270
  0.9999763554992569  0.5000844598327845  0.5000011421848782
  0.4999950574523808  0.9999528736856291  0.0000086918284694
  0.7292057246404227  0.6992358482438021  0.0345745277445104
  0.7707808591715875  0.1991996183999092  0.4654193076726898
  0.2709254392587468  0.3007345861748405  0.5345490500835695
  0.2292155770058670  0.8007869193620252  0.9654679360586300
  0.2708134504340691  0.3007179495853620  0.9654095149744251
  0.2292642122283368  0.8008609853593569  0.5345582961187105
  0.7291307139578080  0.6992059541677236  0.4654722660060102
  0.7708030935618737  0.1992487001242509  0.0345412503261073
  0.4279733635391736  0.0147978886824802  0.2499863725864770
  0.0720663972221871  0.5147514581926558  0.2500272202787741
  0.5720188935758941  0.9852322803839044  0.7500169497671507
  0.9279219584621572  0.4852156095893747  0.7499772207377404
 
  0.00000000E+00  0.00000000E+00  0.00000000E+00
  0.00000000E+00  0.00000000E+00  0.00000000E+00
  0.00000000E+00  0.00000000E+00  0.00000000E+00
  0.00000000E+00  0.00000000E+00  0.00000000E+00
  0.00000000E+00  0.00000000E+00  0.00000000E+00
  0.00000000E+00  0.00000000E+00  0.00000000E+00
  0.00000000E+00  0.00000000E+00  0.00000000E+00
  0.00000000E+00  0.00000000E+00  0.00000000E+00
  0.00000000E+00  0.00000000E+00  0.00000000E+00
  0.00000000E+00  0.00000000E+00  0.00000000E+00
  0.00000000E+00  0.00000000E+00  0.00000000E+00
  0.00000000E+00  0.00000000E+00  0.00000000E+00
  0.00000000E+00  0.00000000E+00  0.00000000E+00
  0.00000000E+00  0.00000000E+00  0.00000000E+00
  0.00000000E+00  0.00000000E+00  0.00000000E+00
  0.00000000E+00  0.00000000E+00  0.00000000E+00
  0.00000000E+00  0.00000000E+00  0.00000000E+00
  0.00000000E+00  0.00000000E+00  0.00000000E+00
  0.00000000E+00  0.00000000E+00  0.00000000E+00
  0.00000000E+00  0.00000000E+00  0.00000000E+00
