Ca4 V4 P6 O24                           
   1.00000000000000     
     2.5806170000000002    7.2643230000000001    4.3918320000000000
    -0.0062330000000000    0.0698130000000000    8.7678239999999992
     7.6608499999999999    0.0726230000000000    4.2606859999999998
   Ca   V    P    O 
     4     4     6    24
Direct
  0.5099274481046775  0.5067352061836020  0.4958940548647117
  0.9524320142764562  0.0095464413564819  0.0228806604735519
  0.3869375475524818  0.7516329209862874  0.0843053681635134
  0.0981263403940928  0.4012969615738665  0.7516531765496123
  0.6478661985840271  0.6408786372188303  0.6437202809408297
  0.1494426757024318  0.1453973953134275  0.1549020904476670
  0.8453358268083351  0.8697047822524930  0.8511392751672799
  0.3414661454830660  0.3515130184026990  0.3506797456469090
  0.2407625273334404  0.5595721036710636  0.9465293802638503
  0.0372539902810021  0.7572973081276444  0.4534590943440155
  0.9526489496448681  0.2514231689993571  0.5555477316670610
  0.4581599955908841  0.0520033808277893  0.7462378076962384
  0.5314650758917399  0.9449649785884953  0.2520786806308944
  0.7477330229450507  0.4545838434014287  0.0426271688167609
  0.5555949994320267  0.7767234045842860  0.4232236800358273
  0.2616991477393260  0.0783930125266738  0.9071702210558414
  0.4119700512420533  0.5705682885614805  0.7685186731517042
  0.9145898784073953  0.2772524889847007  0.0749153729502457
  0.7709383805055740  0.4180467859128795  0.5521366843992639
  0.0717622134905655  0.9065962484210366  0.2613331016018065
  0.9179852277981555  0.1000831104049274  0.7440430261140814
  0.5721699939374952  0.4449796419599700  0.2161073874806295
  0.7199533399280987  0.9244913111881899  0.0937667416338979
  0.2288862923376853  0.5905097201333432  0.4340488705934493
  0.0794629156386029  0.7448812805738337  0.9251640662326654
  0.4234205653630225  0.2326833544817981  0.5851172862899104
  0.1923283692650684  0.4010513643586258  0.9728632689532538
  0.8850374988590242  0.6998360134943291  0.4908083342848230
  0.0174401056443569  0.1855661621050153  0.3963113955904811
  0.4983487167407414  0.8676700462231789  0.7327706296644253
  0.3911862648170120  0.9385342222820878  0.2020631249666655
  0.7371658541917773  0.4614775414627263  0.8704329803507349
  0.2829738344225706  0.5338734013107113  0.1092183268646481
  0.0066439255871746  0.7985040013730964  0.6174349520505226
  0.0986625305922505  0.3085343951161079  0.5425302350277486
  0.6054336744359533  0.0362367762062479  0.7969328623522973
  0.4688415491339005  0.1264364037991900  0.2802531898336629
  0.7714779225036126  0.6321010720633148  0.0011300409697925
 
             NaN             NaN             NaN
             NaN             NaN             NaN
             NaN             NaN             NaN
             NaN             NaN             NaN
             NaN             NaN             NaN
             NaN             NaN             NaN
             NaN             NaN             NaN
             NaN             NaN             NaN
             NaN             NaN             NaN
             NaN             NaN             NaN
             NaN             NaN             NaN
             NaN             NaN             NaN
             NaN             NaN             NaN
             NaN             NaN             NaN
             NaN             NaN             NaN
             NaN             NaN             NaN
             NaN             NaN             NaN
             NaN             NaN             NaN
             NaN             NaN             NaN
             NaN             NaN             NaN
             NaN             NaN             NaN
             NaN             NaN             NaN
             NaN             NaN             NaN
             NaN             NaN             NaN
             NaN             NaN             NaN
             NaN             NaN             NaN
             NaN             NaN             NaN
             NaN             NaN             NaN
             NaN             NaN             NaN
             NaN             NaN             NaN
             NaN             NaN             NaN
             NaN             NaN             NaN
             NaN             NaN             NaN
             NaN             NaN             NaN
             NaN             NaN             NaN
             NaN             NaN             NaN
             NaN             NaN             NaN
             NaN             NaN             NaN
