Ca19 V16 P24 O96                        
   1.00000000000000     
    -5.1885079999999997    7.3553360000000003    8.8822500000000009
     5.0989699999999996   -7.2798509999999998    8.7505279999999992
    10.2877100000000006    7.3507330000000000   -0.1556480000000000
   Ca   V    P    O 
    19    16    24    96
Direct
  0.5252192491495993  0.6311989712742846  0.4273116987687150
  0.5054913876220893  0.9796106843313496  0.0169158722071974
 -0.0092527648016128  0.9753788680180634  0.5305614161322633
  0.0016039275662931  0.4802951624493173  0.0177460152903717
  0.4822552585275853  0.0090893669576099  0.4892353408417464
  0.4791534498468654  0.5234187077888326  0.9840869515326058
  0.9752634137658387  0.5171465143402079  0.4908191425657162
  0.9782028194905854  0.0138261024195200  0.9954921601349992
  0.5693617086967599  0.4180767889885191  0.2407744097486456
  0.5667263291162885  0.9168643541486193  0.7387004096784782
  0.0731612002678698  0.9176959847631064  0.2459442067788728
  0.0692552993518833  0.4127718656262776  0.7364055376027792
  0.2564842938364230  0.5727601723605649  0.4350292439488328
  0.2581283735282478  0.0827215438719994  0.9288504542910143
  0.7453408363233414  0.0761581885750454  0.4187815744914957
  0.7524346732816516  0.5782235771215177  0.9247000764431378
  0.5795964780126321  0.2542703939660834  0.9194437095256749
  0.0752956546815298  0.2457523022301991  0.4206221193311759
  0.0753911798603965  0.7479489083781863  0.9192105620623449
  0.6451781882041767  0.6401509080466390  0.6523916923258889
  0.6430232441284243  0.1356074590936612  0.1459162032881200
  0.1466557354035249  0.1394531022566708  0.6419877156334520
  0.1435990090677558  0.6403869100943654  0.1389927225139046
  0.1453752807963179  0.1477982919221217  0.1455244024526006
  0.1442596448852558  0.6469118321361578  0.6455576975283374
  0.6475282661421056  0.6472659589521269  0.1508491426188904
  0.6451429829944865  0.1477670043134248  0.6460721394778389
  0.8575175860762909  0.8611443883180019  0.8430258661124950
  0.8520958195543602  0.3519595378072411  0.3507491671781207
  0.3543999230824100  0.3559435572747550  0.8464313562114486
  0.3517750499033393  0.8554699515821276  0.3512842763691427
  0.3531913151010702  0.3476669479892586  0.3534928990577287
  0.3502678923246429  0.8500915864002181  0.8539855355776078
  0.8500707765416919  0.8479013695567464  0.3445547965196084
  0.8500275452207189  0.3496265624203445  0.8500007339259212
  0.3995159357829230  0.7519246095581709  0.5997795374960974
  0.4026491753305965  0.2498893318127383  0.0935938896843222
  0.8998044335751650  0.2455003906070502  0.5942512971708618
  0.9007626931536807  0.7508564817405000  0.0926258557377523
  0.3928035097424403  0.5970699454963490  0.2378914206282773
  0.4036200701168961  0.1017561208171508  0.7547428859372768
  0.9020265022881532  0.1008802914672466  0.2539881673014031
  0.9026506645430146  0.6021585503127110  0.7551614786335312
  0.6063920467636191  0.4062143820718391  0.7538257417083178
  0.6005883855789639  0.8968400477485465  0.2595847893946553
  0.1099869367178755  0.9051996030142259  0.7620175776083219
  0.1053039179184893  0.4051587758788152  0.2598149169249170
  0.2413913921478989  0.3930392751614740  0.5922913264586054
  0.2417386989126876  0.8941496578710058  0.0948297288598779
  0.7532495862491216  0.8988461153413684  0.6015504011270381
  0.7429445792880283  0.3952541208516781  0.0958022718675527
  0.7493972433090292  0.5983969663637073  0.3937194189560376
  0.7366230171194624  0.0923394690252927  0.8897742504192699
  0.2360377261003401  0.0917716697610883  0.3925031253324749
  0.2339030326390486  0.5910023403032870  0.8882936059134218
  0.5977946960369218  0.2404497004948869  0.3934680125615074
  0.6014085779079651  0.7448858978213178  0.8945923580335595
  0.1034894035764306  0.7513395591046346  0.3956668342015791
  0.1026318952134550  0.2466444251306730  0.8927992103729477
  0.6876200928533462  0.6221389647762299  0.4953925607271358
  0.6576296195231403  0.0826192619122976  0.9829207347357556
  0.1548612744861277  0.0783796373854813  0.4836987193384276
  0.1539951137027123  0.5804316019879927  0.9809845813007573
  0.1587952961224393  0.4873480110360245  0.5778783377171656
  0.1616573464602341  0.9880616934807787  0.0783330202285595
  0.6689859689287141  0.9894216559042777  0.5825007419616629
  0.6626286387307886  0.4890200694857504  0.0780315524435649
  0.4919254034517984  0.6724362695962739  0.5951995159423026
  0.4896551673216961  0.1644456449851660  0.0736726424270930
  0.9887661678173124  0.1615437483621498  0.5772464045958241
  0.9882939999260134  0.6658550558424249  0.0747094879882066
  0.5858675582726613  0.1665323579187629  0.4902691185218044
  0.5975470669244302  0.6737204861428995  0.9931169533460732
  0.0932983521161215  0.6632501514465833  0.4799557741809824
  0.0897320643188048  0.1620826487979667  0.9801499087343327
  0.6041150799610983  0.4843366092070018  0.6650240078282289
  0.5949744684874750  0.9759138061353381  0.1674007074569928
  0.0999810025497599  0.9818337074612091  0.6709601097447635
  0.0906130163839112  0.4839886522304135  0.1707829673259304
  0.4888710620872777  0.5828165997042760  0.1642491414523216
  0.4856860787533190  0.0782730948563493  0.6679074827235186
  0.9867643068536512  0.0783780402987046  0.1693948441274779
  0.9824452340624880  0.5802396917304393  0.6659420305113579
  0.5099329386728875  0.4175647556202246  0.8307844643474802
  0.5053581399723530  0.9152839341520366  0.3327262452799601
  0.0164467088401182  0.9174437570389080  0.8404045324491087
  0.0121377984236396  0.4147280835435144  0.3396208535688483
  0.5167116143527696  0.3294487813083610  0.3916682917933919
  0.5137067979768737  0.8295582562427123  0.8999438733821885
  0.0126627454356726  0.8328518330409811  0.4056163206968536
  0.0182311174474792  0.3345305321263042  0.9039155779830291
  0.8164459686334927  0.4997542446531446  0.4107601811243540
  0.8276056458799999  0.0157730040048387  0.9028789520165789
  0.3264474046148299  0.0141318586377148  0.4031118619689574
  0.3231126948600179  0.5122201916403806  0.8999161944048449
  0.4110530788429207  0.5076570053212974  0.3232156414967383
  0.4183523908109489  0.0099695245130989  0.8382947719973480
  0.9140162093601030  0.0096758120355492  0.3378168715091032
  0.9192693643068877  0.5102849934581969  0.8377013481761799
  0.4160683704848611  0.8279007297345589  0.5051772231727906
  0.4226853502336482  0.3344549889629264  0.0053246039773502
  0.9207765812138651  0.3287169869651114  0.5055452661073117
  0.9177960518109424  0.8313962584352775  0.0013313289727220
  0.3241509292267397  0.4114094194161533  0.5077748680474584
  0.3308805282599671  0.9139937363712767  0.0146760789424673
  0.8193343558702775  0.8984739019781443  0.4995882373356926
  0.8285351996501554  0.4115809851258841  0.0109502569504052
  0.2974236023015436  0.6854929593329691  0.5863315219938151
  0.2971377798976015  0.1896739135754494  0.0822027259548873
  0.7958193765613395  0.1838937239117018  0.5801657781666150
  0.7959814777890368  0.6898916665605684  0.0833430316483325
  0.7895713233727067  0.6001630300883417  0.7190759609408766
  0.7920189012367881  0.1001279919514635  0.2094919752564189
  0.2919276153537982  0.1021800615869515  0.7143862634383455
  0.2929339069276201  0.5885979234191702  0.1757093648901649
  0.1070161589550804  0.2899951185243820  0.2209197740874268
  0.1108579387836477  0.7893280131515523  0.7250015824687687
  0.5975753221256446  0.7833176030687852  0.2176520008956191
  0.6090799148857188  0.2889125875332546  0.7204032825454570
  0.6828620981971395  0.8029521167965104  0.6290158659821340
  0.6729732656490334  0.2943834846870628  0.0827031105466961
  0.1682007721085478  0.2937904754978233  0.5772906520390482
  0.1733478823995231  0.7939148408725827  0.0732100353348262
  0.6604639005302626  0.5753034773650115  0.3091095033717506
  0.6689884910287180  0.0660453223067517  0.7911525700488385
  0.1677690392548995  0.0720430078824036  0.2925299940095527
  0.1636891814640972  0.5687243434150302  0.7906196473585628
  0.5858284556463347  0.6654252924854974  0.8031480980021669
  0.5884600621571171  0.1632784304826798  0.2984587550260079
  0.0892475613551744  0.1936258356657204  0.7851498196806930
  0.1004990272859843  0.6991243414964797  0.2866680972571677
  0.4164083076621309  0.3094179829691716  0.1988034928541041
  0.4060082075770454  0.8207624735809237  0.7005330539751258
  0.9170518434546292  0.8166376999323414  0.1943688459716517
  0.9110554188929897  0.3084857022555859  0.6982956254962122
  0.3954813424520370  0.6960366967793162  0.3126040598966363
  0.4247124157300828  0.2031564562124463  0.8217648637705285
  0.9226482780079850  0.2033535997586449  0.3189146229328371
  0.9239645237326943  0.7050480234175966  0.8191222307590170
  0.2044332055305556  0.4289016830905191  0.3272231033606818
  0.2065413806458118  0.9284413628920942  0.8333088341448172
  0.7010133597520887  0.9199509189205982  0.3254167712556075
  0.7004709310318973  0.4235907217719871  0.8335918524857132
  0.8322846307127363  0.9229351681185582  0.6898251453857372
  0.7867274413022385  0.4019904840648951  0.2062961666468863
  0.2802793781812218  0.3939003075924439  0.7046857249503732
  0.2797115870809047  0.8936747799044942  0.2075122920678828
  0.2731353258705464  0.2078096897025290  0.3936233315232295
  0.2730339330671049  0.7062110380313906  0.8879394312448761
  0.8198936522841763  0.6903662859775275  0.3629206505025053
  0.7726015752506299  0.2085465082286250  0.8874609419060053
  0.7096629079460600  0.2868325359539237  0.3933727626765153
  0.7055660963896355  0.8048670732986386  0.8828899671369780
  0.2063028366474778  0.8133097890332746  0.4105345884846615
  0.2125787787730930  0.2954164003942006  0.9030324211053621
 
             NaN             NaN             NaN
             NaN             NaN             NaN
             NaN             NaN             NaN
             NaN             NaN             NaN
             NaN             NaN             NaN
             NaN             NaN             NaN
             NaN             NaN             NaN
             NaN             NaN             NaN
             NaN             NaN             NaN
             NaN             NaN             NaN
             NaN             NaN             NaN
             NaN             NaN             NaN
             NaN             NaN             NaN
             NaN             NaN             NaN
             NaN             NaN             NaN
             NaN             NaN             NaN
             NaN             NaN             NaN
             NaN             NaN             NaN
             NaN             NaN             NaN
             NaN             NaN             NaN
             NaN             NaN             NaN
             NaN             NaN             NaN
             NaN             NaN             NaN
             NaN             NaN             NaN
             NaN             NaN             NaN
             NaN             NaN             NaN
             NaN             NaN             NaN
             NaN             NaN             NaN
             NaN             NaN             NaN
             NaN             NaN             NaN
             NaN             NaN             NaN
             NaN             NaN             NaN
             NaN             NaN             NaN
             NaN             NaN             NaN
             NaN             NaN             NaN
             NaN             NaN             NaN
             NaN             NaN             NaN
             NaN             NaN             NaN
             NaN             NaN             NaN
             NaN             NaN             NaN
             NaN             NaN             NaN
             NaN             NaN             NaN
             NaN             NaN             NaN
             NaN             NaN             NaN
             NaN             NaN             NaN
             NaN             NaN             NaN
             NaN             NaN             NaN
             NaN             NaN             NaN
             NaN             NaN             NaN
             NaN             NaN             NaN
             NaN             NaN             NaN
             NaN             NaN             NaN
             NaN             NaN             NaN
             NaN             NaN             NaN
             NaN             NaN             NaN
             NaN             NaN             NaN
             NaN             NaN             NaN
             NaN             NaN             NaN
             NaN             NaN             NaN
             NaN             NaN             NaN
             NaN             NaN             NaN
             NaN             NaN             NaN
             NaN             NaN             NaN
             NaN             NaN             NaN
             NaN             NaN             NaN
             NaN             NaN             NaN
             NaN             NaN             NaN
             NaN             NaN             NaN
             NaN             NaN             NaN
             NaN             NaN             NaN
             NaN             NaN             NaN
             NaN             NaN             NaN
             NaN             NaN             NaN
             NaN             NaN             NaN
             NaN             NaN             NaN
             NaN             NaN             NaN
             NaN             NaN             NaN
             NaN             NaN             NaN
             NaN             NaN             NaN
             NaN             NaN             NaN
             NaN             NaN             NaN
             NaN             NaN             NaN
             NaN             NaN             NaN
             NaN             NaN             NaN
             NaN             NaN             NaN
             NaN             NaN             NaN
             NaN             NaN             NaN
             NaN             NaN             NaN
             NaN             NaN             NaN
             NaN             NaN             NaN
             NaN             NaN             NaN
             NaN             NaN             NaN
             NaN             NaN             NaN
             NaN             NaN             NaN
             NaN             NaN             NaN
             NaN             NaN             NaN
             NaN             NaN             NaN
             NaN             NaN             NaN
             NaN             NaN             NaN
             NaN             NaN             NaN
             NaN             NaN             NaN
             NaN             NaN             NaN
             NaN             NaN             NaN
             NaN             NaN             NaN
             NaN             NaN             NaN
             NaN             NaN             NaN
             NaN             NaN             NaN
             NaN             NaN             NaN
             NaN             NaN             NaN
             NaN             NaN             NaN
             NaN             NaN             NaN
             NaN             NaN             NaN
             NaN             NaN             NaN
             NaN             NaN             NaN
             NaN             NaN             NaN
             NaN             NaN             NaN
             NaN             NaN             NaN
             NaN             NaN             NaN
             NaN             NaN             NaN
             NaN             NaN             NaN
             NaN             NaN             NaN
             NaN             NaN             NaN
             NaN             NaN             NaN
             NaN             NaN             NaN
             NaN             NaN             NaN
             NaN             NaN             NaN
             NaN             NaN             NaN
             NaN             NaN             NaN
             NaN             NaN             NaN
             NaN             NaN             NaN
             NaN             NaN             NaN
             NaN             NaN             NaN
             NaN             NaN             NaN
             NaN             NaN             NaN
             NaN             NaN             NaN
             NaN             NaN             NaN
             NaN             NaN             NaN
             NaN             NaN             NaN
             NaN             NaN             NaN
             NaN             NaN             NaN
             NaN             NaN             NaN
             NaN             NaN             NaN
             NaN             NaN             NaN
             NaN             NaN             NaN
             NaN             NaN             NaN
             NaN             NaN             NaN
             NaN             NaN             NaN
             NaN             NaN             NaN
             NaN             NaN             NaN
             NaN             NaN             NaN
             NaN             NaN             NaN
             NaN             NaN             NaN
             NaN             NaN             NaN
             NaN             NaN             NaN
             NaN             NaN             NaN
