Ca19 V16 P24 O96
1.0
-5.188508 7.355336 8.882250
5.098970 -7.279851 8.750528
10.287710 7.350733 -0.155648
Ca V P O
19 16 24 96
direct
0.534685 0.614160 0.465204 Ca
0.505050 0.978353 0.019578 Ca
0.002089 0.976281 0.519637 Ca
0.001866 0.479737 0.018112 Ca
0.483793 0.010842 0.490124 Ca
0.473909 0.516567 0.996912 Ca
0.979570 0.520139 0.488382 Ca
0.978382 0.015503 0.993616 Ca
0.572672 0.425381 0.254092 Ca
0.569423 0.914789 0.738727 Ca
0.073127 0.915525 0.243068 Ca
0.068485 0.414922 0.737097 Ca
0.270821 0.576923 0.438464 Ca
0.256861 0.082193 0.926282 Ca
0.751376 0.076578 0.423703 Ca
0.754130 0.577825 0.925827 Ca
0.577378 0.250433 0.920357 Ca
0.074870 0.246934 0.420300 Ca
0.075066 0.747134 0.918768 Ca
0.641483 0.638426 0.641587 V
0.645639 0.138348 0.145205 V
0.146342 0.138824 0.642294 V
0.148071 0.639148 0.138894 V
0.146583 0.147772 0.145963 V
0.145147 0.647175 0.645096 V
0.647370 0.648356 0.146835 V
0.645240 0.148258 0.646781 V
0.854712 0.857087 0.847024 V
0.852033 0.355414 0.350879 V
0.354117 0.356045 0.848143 V
0.351437 0.856677 0.351501 V
0.349457 0.348973 0.350586 V
0.350804 0.849372 0.851371 V
0.849637 0.847710 0.349237 V
0.849736 0.348423 0.850377 V
0.400716 0.751765 0.596364 P
0.402276 0.248960 0.094813 P
0.900922 0.246585 0.593851 P
0.901720 0.748664 0.093868 P
0.396328 0.598795 0.244045 P
0.403292 0.100904 0.753862 P
0.902711 0.100350 0.252937 P
0.900462 0.601268 0.751695 P
0.604937 0.405593 0.758527 P
0.603789 0.899888 0.259257 P
0.107512 0.904205 0.760637 P
0.107316 0.405873 0.260841 P
0.241976 0.392424 0.593460 P
0.242463 0.894730 0.093218 P
0.745919 0.895789 0.595287 P
0.742356 0.394591 0.095392 P
0.741618 0.596457 0.394927 P
0.736089 0.091536 0.890507 P
0.237247 0.092768 0.390315 P
0.234762 0.591276 0.887889 P
0.599259 0.244916 0.393934 P
0.601227 0.745767 0.892069 P
0.105113 0.751832 0.394082 P
0.102159 0.247373 0.893930 P
0.666202 0.589993 0.489295 O
0.657645 0.080939 0.984217 O
0.158234 0.079312 0.483344 O
0.155096 0.579632 0.980730 O
0.161889 0.487540 0.578224 O
0.161331 0.988091 0.077475 O
0.663786 0.988802 0.578896 O
0.660658 0.487322 0.080461 O
0.488032 0.668332 0.581587 O
0.490720 0.164735 0.076347 O
0.988853 0.161753 0.574706 O
0.989948 0.664377 0.075565 O
0.592159 0.166981 0.486513 O
0.593271 0.662678 0.981024 O
0.100972 0.663969 0.478248 O
0.090625 0.164496 0.982917 O
0.595882 0.483864 0.669743 O
0.593603 0.982499 0.171963 O
0.096991 0.980734 0.669454 O
0.093447 0.482626 0.169931 O
0.492899 0.586803 0.170497 O
0.486097 0.080140 0.667206 O
0.987893 0.081295 0.168240 O
0.983572 0.581700 0.664685 O
0.511389 0.416642 0.838050 O
0.509259 0.910131 0.335369 O
0.013864 0.916357 0.838984 O
0.012656 0.414557 0.338673 O
0.508808 0.323549 0.396813 O
0.513966 0.830379 0.903714 O
0.009243 0.826822 0.404642 O
0.015742 0.333416 0.902935 O
0.823798 0.507955 0.404069 O
0.826573 0.014132 0.902021 O
0.330107 0.018037 0.399781 O
0.324873 0.513568 0.899148 O
0.411075 0.505717 0.324963 O
0.418992 0.008630 0.836326 O
0.917760 0.007484 0.334657 O
0.916898 0.507971 0.832937 O
0.413501 0.834584 0.506789 O
0.420896 0.331723 0.005017 O
0.921328 0.331308 0.506335 O
0.920636 0.831749 0.004841 O
0.327256 0.408956 0.509983 O
0.329812 0.914978 0.011165 O
0.826348 0.911648 0.505790 O
0.827719 0.414756 0.010317 O
0.295332 0.690418 0.586607 O
0.297855 0.186916 0.082216 O
0.795976 0.186513 0.579888 O
0.797176 0.687471 0.081051 O
0.789120 0.600634 0.710348 O
0.793299 0.097554 0.207260 O
0.291925 0.099961 0.712450 O
0.298815 0.589056 0.176502 O
0.110864 0.289798 0.224275 O
0.107755 0.788125 0.724175 O
0.604225 0.789186 0.211497 O
0.606709 0.288948 0.723171 O
0.675843 0.796427 0.591827 O
0.675740 0.292563 0.077970 O
0.168932 0.293804 0.577606 O
0.173948 0.794118 0.073393 O
0.670737 0.578732 0.296400 O
0.666611 0.067916 0.792523 O
0.167453 0.069797 0.292166 O
0.164351 0.568776 0.790336 O
0.589393 0.686932 0.787389 O
0.597787 0.176392 0.295861 O
0.091664 0.189088 0.788620 O
0.104696 0.699222 0.285621 O
0.414177 0.311417 0.198312 O
0.412832 0.815873 0.700101 O
0.914784 0.810556 0.198087 O
0.913387 0.306784 0.699153 O
0.392690 0.696697 0.318166 O
0.421573 0.201904 0.822561 O
0.918955 0.201599 0.321538 O
0.919785 0.701731 0.820810 O
0.204613 0.432511 0.329956 O
0.204870 0.927439 0.830943 O
0.703004 0.922021 0.327265 O
0.702425 0.425287 0.831452 O
0.801025 0.905611 0.699450 O
0.787987 0.398265 0.204897 O
0.282175 0.393177 0.705286 O
0.283583 0.895357 0.204714 O
0.270884 0.209756 0.389717 O
0.272146 0.707017 0.887459 O
0.798907 0.703001 0.392636 O
0.773341 0.207269 0.888957 O
0.701964 0.307199 0.395514 O
0.707218 0.803285 0.896565 O
0.201550 0.824405 0.406881 O
0.209858 0.301011 0.903449 O
