Ca4 V4 P6 O24                           
   1.00000000000000     
     2.5554380000000001    7.2572609999999997    4.3384989999999997
    -0.0044970000000000    0.0252530000000000    8.7920370000000005
     7.6687360000000000    0.0262910000000000    4.2978310000000004
   Ca   V    P    O 
     4     4     6    24
Direct
  0.2429566582170102  0.8529067353954951  0.5833017344483137
  0.9636700226680193  0.0030882389724533  0.0217613985393908
  0.4060339438574962  0.7371509576547156  0.1051320743216455
  0.1328456392665064  0.3862793040177270  0.7440559425329175
  0.6593961448508149  0.6189845655887716  0.6369037215390221
  0.1534913230165596  0.1397674566418476  0.1511167526078746
  0.8388715034638904  0.8583491748601780  0.8554866995375801
  0.3525634139973798  0.3474754147070891  0.3474194664263407
  0.2470940065011717  0.5503241120126859  0.9517114068953284
  0.0379039555594003  0.7459948470766505  0.4452893136391854
  0.9611789498658797  0.2463881334635275  0.5535695463763770
  0.4598845179860617  0.0294464438745640  0.7474209146375704
  0.5439221600367181  0.9481426491240427  0.2465620262603246
  0.7569442405803396  0.4459363768049115  0.0290656334974751
  0.5529205928982681  0.7997002354368129  0.4336080601428141
  0.2641142736686180  0.0633567528577119  0.9074375505814171
  0.4132381157534031  0.5690324094301841  0.7722794376728001
  0.9247232417814184  0.2736695179791632  0.0652349933983993
  0.7816687466069643  0.4044432466017985  0.5504702386118201
  0.0772056308527134  0.9011225960883898  0.2596426515124505
  0.9399225191173095  0.0814531469524932  0.7382605519768208
  0.5797307521775867  0.4260897669882636  0.1871572111619285
  0.7305194514158309  0.9112674547523458  0.0962073836649663
  0.2274146736595511  0.5849030772473894  0.4317050027541514
  0.0913250576947096  0.7390344988744308  0.9067774607635620
  0.4314253211424916  0.1969037757248364  0.5791517870367129
  0.1966415120651962  0.3928313339194854  0.9819356413527807
  0.8832671502472275  0.6997430623199269  0.4713318290194765
  0.0452718744930563  0.1600942760834191  0.4038931072793145
  0.4961626988885642  0.8404201864270442  0.7459474747079817
  0.3913316688788547  0.9326770712661112  0.2199817154475209
  0.7696400673655052  0.4571685338521888  0.8427359719133402
  0.2729887150898463  0.5379629932234510  0.1170321249233438
  0.0030052943328803  0.7869611570731229  0.6133185896864749
  0.1095830445401639  0.3012571471490512  0.5411552424899397
  0.6002322004634665  0.0153562645502924  0.8079212091143898
  0.4812230652340518  0.1380506240941597  0.2534708119876457
  0.7639901772531079  0.6266972414204153  0.0042345969005631
 
             NaN             NaN             NaN
             NaN             NaN             NaN
             NaN             NaN             NaN
             NaN             NaN             NaN
             NaN             NaN             NaN
             NaN             NaN             NaN
             NaN             NaN             NaN
             NaN             NaN             NaN
             NaN             NaN             NaN
             NaN             NaN             NaN
             NaN             NaN             NaN
             NaN             NaN             NaN
             NaN             NaN             NaN
             NaN             NaN             NaN
             NaN             NaN             NaN
             NaN             NaN             NaN
             NaN             NaN             NaN
             NaN             NaN             NaN
             NaN             NaN             NaN
             NaN             NaN             NaN
             NaN             NaN             NaN
             NaN             NaN             NaN
             NaN             NaN             NaN
             NaN             NaN             NaN
             NaN             NaN             NaN
             NaN             NaN             NaN
             NaN             NaN             NaN
             NaN             NaN             NaN
             NaN             NaN             NaN
             NaN             NaN             NaN
             NaN             NaN             NaN
             NaN             NaN             NaN
             NaN             NaN             NaN
             NaN             NaN             NaN
             NaN             NaN             NaN
             NaN             NaN             NaN
             NaN             NaN             NaN
             NaN             NaN             NaN
