Ca4 V4 P6 O24                           
   1.00000000000000     
     2.5946889999999998    7.2725569999999999    4.3795019999999996
     0.0011660000000000    0.0409010000000000    8.8085009999999997
     7.6860889999999999    0.0286970000000000    4.3069940000000004
   Ca   V    P    O 
     4     4     6    24
Direct
  0.3300157238283500  0.7163892316511185  0.5322882664940641
  0.9530725116927415  0.0087211709244710  0.0151046234021686
  0.3845315148746332  0.7458688567895230  0.0902980601188119
  0.1221060810541431  0.3818439327566854  0.7529809530837910
  0.6507086195143935  0.6248483253609466  0.6508146575872772
  0.1448397440105767  0.1415418172505246  0.1557019630260624
  0.8511005466318604  0.8643542344732579  0.8407680764322804
  0.3574537744668008  0.3484398955778721  0.3494872102404902
  0.2425498522168773  0.5512544658746633  0.9531757385136790
  0.0334077941767770  0.7551172087419532  0.4501582053045945
  0.9536874271272190  0.2521855962166433  0.5569836991785320
  0.4593543983626320  0.0329553474249177  0.7488752901658461
  0.5503403451757737  0.9483141295895370  0.2432062097303110
  0.7526204607858155  0.4554123543927004  0.0326756961443041
  0.5681820631871894  0.8003535684321070  0.4294966821138766
  0.2656732297468641  0.0661640681450384  0.9098171570805248
  0.4161451396136628  0.5558248633550079  0.7785263896844440
  0.9135125596524656  0.2708082862246986  0.0576545176957953
  0.7757721725767383  0.4191411873646140  0.5604556089266158
  0.0657878254873474  0.8975941421261689  0.2553593039201164
  0.9094915826569098  0.0947154525183101  0.7439474832635660
  0.5848976461241805  0.4674868835325622  0.2076700531995437
  0.7345009772777836  0.8960326287244402  0.0933652272343054
  0.2243538832942285  0.5915819544240947  0.4376823348548454
  0.0929409063205181  0.7418876067361445  0.9014668028942198
  0.4351332751403379  0.2064013880828091  0.5862586523584986
  0.1918582688431441  0.3950045535083883  0.9825382818402639
  0.8803354385646397  0.6901205554933325  0.5150507359556795
  0.0211222053325068  0.1909107162808837  0.3966122342816073
  0.4875512217706654  0.8490549699203230  0.7434130283585123
  0.3944469290124120  0.9273124228879833  0.2262960222020116
  0.6988619333662224  0.4686353015075591  0.8853018568771602
  0.2716201915142114  0.5395410600503286  0.1156723925794972
  0.0182210607832747  0.8206569412880423  0.5903871080245633
  0.1042612962747491  0.2920550826572259  0.5582096115804120
  0.6064910061211700  0.9980697710016257  0.8138646741087375
  0.5053744666284584  0.1378035911497957  0.2390626972395137
  0.8276739899341119  0.6124458207698668  0.9505208093888535
 
             NaN             NaN             NaN
             NaN             NaN             NaN
             NaN             NaN             NaN
             NaN             NaN             NaN
             NaN             NaN             NaN
             NaN             NaN             NaN
             NaN             NaN             NaN
             NaN             NaN             NaN
             NaN             NaN             NaN
             NaN             NaN             NaN
             NaN             NaN             NaN
             NaN             NaN             NaN
             NaN             NaN             NaN
             NaN             NaN             NaN
             NaN             NaN             NaN
             NaN             NaN             NaN
             NaN             NaN             NaN
             NaN             NaN             NaN
             NaN             NaN             NaN
             NaN             NaN             NaN
             NaN             NaN             NaN
             NaN             NaN             NaN
             NaN             NaN             NaN
             NaN             NaN             NaN
             NaN             NaN             NaN
             NaN             NaN             NaN
             NaN             NaN             NaN
             NaN             NaN             NaN
             NaN             NaN             NaN
             NaN             NaN             NaN
             NaN             NaN             NaN
             NaN             NaN             NaN
             NaN             NaN             NaN
             NaN             NaN             NaN
             NaN             NaN             NaN
             NaN             NaN             NaN
             NaN             NaN             NaN
             NaN             NaN             NaN
