Ca4 V4 P6 O24                           
   1.00000000000000     
     2.5946889999999998    7.2725569999999999    4.3795019999999996
     0.0011660000000000    0.0409010000000000    8.8085009999999997
     7.6860889999999999    0.0286970000000000    4.3069940000000004
   Ca   V    P    O 
     4     4     6    24
Direct
  0.3299883470881186  0.7163729986642573  0.5323192960480049
  0.9531006012678840  0.0086938945089243  0.0151005387420075
  0.3845188250094361  0.7458711142478165  0.0902988016307736
  0.1221282257086548  0.3818475496673214  0.7529698104437943
  0.6506918222167999  0.6249024510067667  0.6508445803935591
  0.1448346823248916  0.1415408273323177  0.1557083975815121
  0.8511171327904672  0.8643710607061297  0.8407530115126367
  0.3574403026459559  0.3484480217398122  0.3494819026159006
  0.2425789278329137  0.5512589874940436  0.9531399492255299
  0.0333911627715176  0.7551253844760790  0.4501497782520327
  0.9536579660134474  0.2522228124987378  0.5569639467355301
  0.4593582898249442  0.0329927209850911  0.7488521730850515
  0.5503442550319255  0.9483481482965443  0.2431624416660637
  0.7526487270030811  0.4554116511668654  0.0326989014586695
  0.5682148900271596  0.8002842741522244  0.4295674751162057
  0.2656743679300675  0.0661603145744060  0.9098092690818367
  0.4160924080047586  0.5557900556799841  0.7785656853248452
  0.9134951390486856  0.2708190624295944  0.0576367430826518
  0.7757944189164619  0.4191347202361286  0.5604810269302590
  0.0658012990743106  0.8975983981964426  0.2553477521755299
  0.9095080616137473  0.0947215043051805  0.7439355360053087
  0.5849086248190477  0.4674803729804332  0.2076541156966646
  0.7344842564554294  0.8960295795520264  0.0933888980445636
  0.2243681099438589  0.5915806817827787  0.4376808741105183
  0.0929396519532622  0.7418945955186373  0.9014726408128688
  0.4351257098893612  0.2063977267475811  0.5862619111174924
  0.1918475809856937  0.3949947278173515  0.9825488420938286
  0.8803813788509282  0.6901190219044607  0.5150227760210444
  0.0211295839556398  0.1909022786305878  0.3965959671688785
  0.4875549414236054  0.8490100734923278  0.7434229052441215
  0.3944597593672036  0.9273023442808931  0.2263079656350535
  0.6988117489957602  0.4686895416070413  0.8852176460366655
  0.2716272702522242  0.5395340874768426  0.1156856976363993
  0.0182395874775990  0.8206502005469555  0.5903915549141375
  0.1042619644609346  0.2920500257674671  0.5582133656677469
  0.6064643559689895  0.9980658435822226  0.8138750232531341
  0.5053579727771532  0.1377977062669445  0.2390784759934211
  0.8276556437635112  0.6124347266871590  0.9505426621652558
 
             NaN             NaN             NaN
             NaN             NaN             NaN
             NaN             NaN             NaN
             NaN             NaN             NaN
             NaN             NaN             NaN
             NaN             NaN             NaN
             NaN             NaN             NaN
             NaN             NaN             NaN
             NaN             NaN             NaN
             NaN             NaN             NaN
             NaN             NaN             NaN
             NaN             NaN             NaN
             NaN             NaN             NaN
             NaN             NaN             NaN
             NaN             NaN             NaN
             NaN             NaN             NaN
             NaN             NaN             NaN
             NaN             NaN             NaN
             NaN             NaN             NaN
             NaN             NaN             NaN
             NaN             NaN             NaN
             NaN             NaN             NaN
             NaN             NaN             NaN
             NaN             NaN             NaN
             NaN             NaN             NaN
             NaN             NaN             NaN
             NaN             NaN             NaN
             NaN             NaN             NaN
             NaN             NaN             NaN
             NaN             NaN             NaN
             NaN             NaN             NaN
             NaN             NaN             NaN
             NaN             NaN             NaN
             NaN             NaN             NaN
             NaN             NaN             NaN
             NaN             NaN             NaN
             NaN             NaN             NaN
             NaN             NaN             NaN
