Ca5 Ti4 P6 O24                          
   1.00000000000000     
     2.5847236149084405    7.4696769185603511    4.4926743791226045
    -0.0463008228640904   -0.0210331690955313    8.9345334434679931
     7.7969963157436091    0.0145545509084161    4.3695187381727978
   Ca   Ti   P    O 
     5     4     6    24
Direct
  0.5408769076452669  0.4651478339287521  0.5033835188292449
  0.9552812574940999  0.9927534526464559  0.0307228309426163
  0.3974369356329401  0.7418694436886712  0.0857529535918268
  0.0987822364894389  0.4101834083545470  0.7543771421788246
  0.2483553269380429  0.9050137027349512  0.5901933736653028
  0.6483872414961932  0.6509650672126654  0.6347841666846467
  0.1368549097021876  0.1507089881565334  0.1497558356767500
  0.8474534234576174  0.8618387505751033  0.8438743864556172
  0.3586849758171617  0.3464943471117129  0.3460857232998757
  0.2478074321622134  0.5577952470962084  0.9384281632474565
  0.0646291268829784  0.7467835445439110  0.4505915434557727
  0.9644754567670391  0.2521531538021293  0.5614673656731618
  0.4308221360571121  0.0451214072880053  0.7495140950545935
  0.5319605279170980  0.9344088791515264  0.2439416418713924
  0.7479638975804018  0.4571161586123047  0.0383153086731655
  0.5552899120276791  0.7540827734287598  0.4037748725085458
  0.2431696065032340  0.0723471287191657  0.9031728739337858
  0.3975617538091819  0.5812381791894913  0.7495677609471252
  0.8976130482471294  0.2702766819029599  0.0444196573782282
  0.7860613467851930  0.4040266467943496  0.5603705683194466
  0.0742727657734973  0.8913894581772616  0.2612766778108027
  0.9407419426935675  0.0923179451047461  0.7416009450371932
  0.5983781335160088  0.4524421270774898  0.2251336560082902
  0.7105757545977761  0.9346868187519118  0.0919725284596277
  0.2523341244188860  0.5928560199204235  0.4246388677370511
  0.0983804545900409  0.7467502761357593  0.9142259918567545
  0.4222405431871168  0.2341989999260522  0.6046371154796107
  0.1952607711092507  0.4042645709928654  0.9687405305551304
  0.9167836403336652  0.6714024776707159  0.5292127740032346
  0.0438732011300620  0.1761410003569608  0.4083510159290435
  0.4455474544871705  0.9048639963112538  0.6868244828669472
  0.3910882787959222  0.9419464860275749  0.1905801458278867
  0.6579975154593475  0.5155821750550852  0.9051127008498767
  0.3001292604599622  0.5275858233036058  0.0920168439038426
  0.0492041271422449  0.8101498948720973  0.5907208187125055
  0.1047546529937327  0.3058713791582561  0.5546200951064624
  0.5785133847997718  0.9653995731131907  0.8253654438347066
  0.4533457950766294  0.0874124832670721  0.3200086957699222
  0.8380107400231636  0.5912136998395198  0.9774668878637552
 
  0.00000000E+00  0.00000000E+00  0.00000000E+00
  0.00000000E+00  0.00000000E+00  0.00000000E+00
  0.00000000E+00  0.00000000E+00  0.00000000E+00
  0.00000000E+00  0.00000000E+00  0.00000000E+00
  0.00000000E+00  0.00000000E+00  0.00000000E+00
  0.00000000E+00  0.00000000E+00  0.00000000E+00
  0.00000000E+00  0.00000000E+00  0.00000000E+00
  0.00000000E+00  0.00000000E+00  0.00000000E+00
  0.00000000E+00  0.00000000E+00  0.00000000E+00
  0.00000000E+00  0.00000000E+00  0.00000000E+00
  0.00000000E+00  0.00000000E+00  0.00000000E+00
  0.00000000E+00  0.00000000E+00  0.00000000E+00
  0.00000000E+00  0.00000000E+00  0.00000000E+00
  0.00000000E+00  0.00000000E+00  0.00000000E+00
  0.00000000E+00  0.00000000E+00  0.00000000E+00
  0.00000000E+00  0.00000000E+00  0.00000000E+00
  0.00000000E+00  0.00000000E+00  0.00000000E+00
  0.00000000E+00  0.00000000E+00  0.00000000E+00
  0.00000000E+00  0.00000000E+00  0.00000000E+00
  0.00000000E+00  0.00000000E+00  0.00000000E+00
  0.00000000E+00  0.00000000E+00  0.00000000E+00
  0.00000000E+00  0.00000000E+00  0.00000000E+00
  0.00000000E+00  0.00000000E+00  0.00000000E+00
  0.00000000E+00  0.00000000E+00  0.00000000E+00
  0.00000000E+00  0.00000000E+00  0.00000000E+00
  0.00000000E+00  0.00000000E+00  0.00000000E+00
  0.00000000E+00  0.00000000E+00  0.00000000E+00
  0.00000000E+00  0.00000000E+00  0.00000000E+00
  0.00000000E+00  0.00000000E+00  0.00000000E+00
  0.00000000E+00  0.00000000E+00  0.00000000E+00
  0.00000000E+00  0.00000000E+00  0.00000000E+00
  0.00000000E+00  0.00000000E+00  0.00000000E+00
  0.00000000E+00  0.00000000E+00  0.00000000E+00
  0.00000000E+00  0.00000000E+00  0.00000000E+00
  0.00000000E+00  0.00000000E+00  0.00000000E+00
  0.00000000E+00  0.00000000E+00  0.00000000E+00
  0.00000000E+00  0.00000000E+00  0.00000000E+00
  0.00000000E+00  0.00000000E+00  0.00000000E+00
  0.00000000E+00  0.00000000E+00  0.00000000E+00
