Ca2 Ni6 P8 O28                          
   1.00000000000000     
     7.2954217215443000    0.0000000307605167    0.0008651249352374
     0.0000000197540164    7.5354129362954190    0.0000000895452380
    -3.5022477196852813    0.0000000577590397    8.6825639765665965
   Ca   Ni   P    O 
     2     6     8    28
Direct
  0.4999898765479772 -0.0000611266294126  0.0000067336397981
  0.4999898571393541  0.5000611549647849  0.5000067201726710
  0.1848140244330355  0.6272131691274527  0.0256379795040765
  0.8151852205273941  0.3727437709141646  0.9743638926200311
  0.8151852615876003  0.1272562585962511  0.4743638985100335
  0.1848139516940522  0.8727866998245738  0.5256378419208698
  0.0000184624566013  0.0000304117346808  0.0000293088929231
  0.0000184949046606  0.4999695450123307  0.5000293049370058
  0.8805345805018749  0.7052219561567519  0.1917314804978117
  0.1194520618467839  0.2948166773204760  0.8082927190308441
  0.1194520298128572  0.2051833327480844  0.3082926927861329
  0.8805345894807406  0.7947780343435025  0.6917314966265796
  0.5967176241603386  0.4330743026167417  0.2024754848132436
  0.4032994583775491  0.5668796391873110  0.7975085888174182
  0.4032994764819831  0.9331203510737209  0.2975085967338325
  0.5967176279083720  0.0669256911760795  0.7024754818826953
  0.3905675194102145  0.4733971729068779  0.1943243143045643
  0.6094216325262536  0.5265066955115298  0.8056250830727293
  0.6094216613264809  0.9734933101615157  0.3056251234298593
  0.3905675101792390  0.0266028639534513  0.6943242791918790
  0.0097263866100001  0.2137578711766075  0.1354688515084636
  0.9902813314968054  0.7862665506562049  0.8645440299241365
  0.9902813389479733  0.7137334747706452  0.3645440162256293
  0.0097264482590555  0.2862421200680735  0.6354688820001406
  0.9717453941086198  0.5764253904824497  0.1127910007795095
  0.0282677314807849  0.4236677266431182  0.8872081002202279
  0.0282676729244597  0.0763323091310663  0.3872080816311584
  0.9717454312144403  0.9235745879387037  0.6127910133705270
  0.6734242050637405  0.6225228193663934  0.1747822968667543
  0.3265743931092459  0.3774444897213441  0.8252345929407637
  0.3265743827982068  0.1225555451175549  0.3252345631147480
  0.6734242410713427  0.8774771832896168  0.6747823299593180
  0.6207684261213490  0.3059327424382426  0.0864638069122728
  0.3792690683551821  0.6940467692272791  0.9135068262411049
  0.3792690555366106  0.8059532379445534  0.4135068650441579
  0.6207684231023581  0.1940672245416662  0.5864637773634337
  0.2726284427035714  0.8794860360472493  0.1313758311340868
  0.7273873447117950  0.1205787478512953  0.8686092028407119
  0.7273873655830962  0.3794212647617599  0.3686091964784267
  0.2726284320251396  0.6205139913575808  0.6313758279478396
  0.8310193685298610  0.8792938510540269  0.1063622940612937
  0.1689074320280870  0.1207325679842870  0.8936576587926514
  0.1689074280490188  0.3792674430875696  0.3936576750960423
  0.8310193348658921  0.6207061446418417  0.6063622581616029
 
  0.00000000E+00  0.00000000E+00  0.00000000E+00
  0.00000000E+00  0.00000000E+00  0.00000000E+00
  0.00000000E+00  0.00000000E+00  0.00000000E+00
  0.00000000E+00  0.00000000E+00  0.00000000E+00
  0.00000000E+00  0.00000000E+00  0.00000000E+00
  0.00000000E+00  0.00000000E+00  0.00000000E+00
  0.00000000E+00  0.00000000E+00  0.00000000E+00
  0.00000000E+00  0.00000000E+00  0.00000000E+00
  0.00000000E+00  0.00000000E+00  0.00000000E+00
  0.00000000E+00  0.00000000E+00  0.00000000E+00
  0.00000000E+00  0.00000000E+00  0.00000000E+00
  0.00000000E+00  0.00000000E+00  0.00000000E+00
  0.00000000E+00  0.00000000E+00  0.00000000E+00
  0.00000000E+00  0.00000000E+00  0.00000000E+00
  0.00000000E+00  0.00000000E+00  0.00000000E+00
  0.00000000E+00  0.00000000E+00  0.00000000E+00
  0.00000000E+00  0.00000000E+00  0.00000000E+00
  0.00000000E+00  0.00000000E+00  0.00000000E+00
  0.00000000E+00  0.00000000E+00  0.00000000E+00
  0.00000000E+00  0.00000000E+00  0.00000000E+00
  0.00000000E+00  0.00000000E+00  0.00000000E+00
  0.00000000E+00  0.00000000E+00  0.00000000E+00
  0.00000000E+00  0.00000000E+00  0.00000000E+00
  0.00000000E+00  0.00000000E+00  0.00000000E+00
  0.00000000E+00  0.00000000E+00  0.00000000E+00
  0.00000000E+00  0.00000000E+00  0.00000000E+00
  0.00000000E+00  0.00000000E+00  0.00000000E+00
  0.00000000E+00  0.00000000E+00  0.00000000E+00
  0.00000000E+00  0.00000000E+00  0.00000000E+00
  0.00000000E+00  0.00000000E+00  0.00000000E+00
  0.00000000E+00  0.00000000E+00  0.00000000E+00
  0.00000000E+00  0.00000000E+00  0.00000000E+00
  0.00000000E+00  0.00000000E+00  0.00000000E+00
  0.00000000E+00  0.00000000E+00  0.00000000E+00
  0.00000000E+00  0.00000000E+00  0.00000000E+00
  0.00000000E+00  0.00000000E+00  0.00000000E+00
  0.00000000E+00  0.00000000E+00  0.00000000E+00
  0.00000000E+00  0.00000000E+00  0.00000000E+00
  0.00000000E+00  0.00000000E+00  0.00000000E+00
  0.00000000E+00  0.00000000E+00  0.00000000E+00
  0.00000000E+00  0.00000000E+00  0.00000000E+00
  0.00000000E+00  0.00000000E+00  0.00000000E+00
  0.00000000E+00  0.00000000E+00  0.00000000E+00
  0.00000000E+00  0.00000000E+00  0.00000000E+00
