Ni36 S32                                
   1.00000000000000     
     9.8460682195110358   -0.0602940834835526   -0.2098724962094607
     0.1193832336439001    9.9051916379617637    0.3273906148047322
    -4.5611931616877319   -5.1616772719053960   11.5351010722830978
   Ni   S 
    36    32
Direct
  0.4555816574015381  0.7726240353896188  0.5054463500555499
  0.8049495841649446  0.9877294774410004  0.0011681480984862
  0.0631910257798793  0.7500269808821116  0.5095122481515730
  0.1944197537449384  0.9936201194915881  0.9990000899407221
  0.2324220290958365  0.9328597001984207  0.4939379353186482
  0.0221376331370564  0.2062749327383813  0.0000702551486356
  0.2437259810428074  0.5657684037423465  0.5098880459404356
  0.9984305988154460  0.8109553718746696  0.0062961186779233
  0.7881486365770698  0.7649296137105708  0.5237726324632206
  0.5083384865666645  0.9682754341848749  0.9679687977344997
  0.2594751234369070  0.2117604503235171  0.4675400375053300
  0.0122731629051529  0.5080525901415811  0.0336972254841044
  0.4448555238007756  0.3690553531540886  0.2486029866400870
  0.5904275213189436  0.8750701936819638  0.2490508468920467
  0.6430461473308142  0.3772688731049954  0.7584767541652937
  0.1338955975950569  0.5464116330290310  0.7447282410348492
  0.9385705310827319  0.3813934947461419  0.7633468656985798
  0.3440033653720747  0.3784073420489520  0.7381119856781666
  0.6124727784815533  0.1670583277081050  0.2366402203275868
  0.6278010123553628  0.5687578314045680  0.2596795624994002
  0.2413159258791282  0.7596322085225040  0.6944989907881691
  0.0212656689531769  0.7996885521320110  0.8300649734921706
  0.4384723704783227  0.9617758528963591  0.6797885880136221
  0.7943766341786969  0.0121754676330355  0.8080610793585592
  0.2552748615288820  0.5512224506800507  0.3178194848759475
  0.9736803979947695  0.9813783668451705  0.1818914747140425
  0.0310902301936622  0.7694522275207447  0.3204221833793284
  0.1871867019896456  0.1911955444301014  0.1809768442490736
  0.6065555571990373  0.3471556278846748  0.4249388048594440
  0.6762272048016698  0.6550535811259834  0.0834105297925802
  0.8379146508432669  0.0889056763593956  0.4111823680865569
  0.4398164253749712  0.3958847804277568  0.0748445575333250
  0.6696533242080136  0.1600004401022019  0.5853896522069419
  0.5811880287022433  0.3278549938140571  0.9159471142107165
  0.9263467659627764  0.3904889815729007  0.5753414665731142
  0.3369475711612751  0.5720662315051896  0.9205614982362320
  0.5782536844142427  0.5830038145249645  0.4162706169918025
  0.6875312490662537  0.9427932089821880  0.1290889682241669
  0.8006702161985828  0.8019469313515373  0.3637842515225813
  0.4132979930528791  0.1587217858909256  0.0806162766192813
  0.4406161788972085  0.1762422147285889  0.6253197371063663
  0.8386356823165926  0.3188912650438240  0.8852741442712073
  0.1736565773696199  0.4091715859703910  0.5799797394151227
  0.0841297812288104  0.5904054568921069  0.9098224760406950
  0.6710522891103352  0.9391934563900648  0.6121974813883924
  0.5959770381045857  0.0794838776917786  0.8759056949020092
  0.9669044402411657  0.6655670271791010  0.6303583120053489
  0.3031114237368016  0.7965375016826002  0.8873320302498300
  0.0538941590907456  0.0405383181097889  0.3808227785061078
  0.2103823573287755  0.4129630471098551  0.1264119939363084
  0.3307506190681053  0.3403043516049067  0.3756231235304028
  0.9198566013664475  0.7055418797260558  0.1187330318005309
  0.4486324703172926  0.7063169992586182  0.6527587831601949
  0.7919669412097790  0.7900877877282042  0.8450337456035513
  0.1870464259966127  0.9680465699465657  0.6544150857105251
  0.0412430210833818  0.0414660944683405  0.8439902142766300
  0.2935457476623000  0.7903714764766718  0.3468071267076525
  0.9387342031694956  0.1990379783963405  0.1408031964455603
  0.0377227620479559  0.5483817653046543  0.3496161431380713
  0.2071473067730381  0.9502769840881555  0.1580926953292519
  0.7090000981272624  0.4160724382634271  0.6275545869155934
  0.5573407524372271  0.5518280327030567  0.8756575286801862
  0.9190492808021418  0.1696680995759579  0.6128530291758310
  0.3211943165127096  0.3181772594033134  0.8777299036059816
  0.5711203896078842  0.0845947869396397  0.3789828644068933
  0.6995327261331141  0.4346491608184664  0.1152921936200428
  0.8181720393163801  0.3088336102496143  0.3764567464807058
  0.4543527587571532  0.6606540910517182  0.1243405424082766
 
  0.00000000E+00  0.00000000E+00  0.00000000E+00
  0.00000000E+00  0.00000000E+00  0.00000000E+00
  0.00000000E+00  0.00000000E+00  0.00000000E+00
  0.00000000E+00  0.00000000E+00  0.00000000E+00
  0.00000000E+00  0.00000000E+00  0.00000000E+00
  0.00000000E+00  0.00000000E+00  0.00000000E+00
  0.00000000E+00  0.00000000E+00  0.00000000E+00
  0.00000000E+00  0.00000000E+00  0.00000000E+00
  0.00000000E+00  0.00000000E+00  0.00000000E+00
  0.00000000E+00  0.00000000E+00  0.00000000E+00
  0.00000000E+00  0.00000000E+00  0.00000000E+00
  0.00000000E+00  0.00000000E+00  0.00000000E+00
  0.00000000E+00  0.00000000E+00  0.00000000E+00
  0.00000000E+00  0.00000000E+00  0.00000000E+00
  0.00000000E+00  0.00000000E+00  0.00000000E+00
  0.00000000E+00  0.00000000E+00  0.00000000E+00
  0.00000000E+00  0.00000000E+00  0.00000000E+00
  0.00000000E+00  0.00000000E+00  0.00000000E+00
  0.00000000E+00  0.00000000E+00  0.00000000E+00
  0.00000000E+00  0.00000000E+00  0.00000000E+00
  0.00000000E+00  0.00000000E+00  0.00000000E+00
  0.00000000E+00  0.00000000E+00  0.00000000E+00
  0.00000000E+00  0.00000000E+00  0.00000000E+00
  0.00000000E+00  0.00000000E+00  0.00000000E+00
  0.00000000E+00  0.00000000E+00  0.00000000E+00
  0.00000000E+00  0.00000000E+00  0.00000000E+00
  0.00000000E+00  0.00000000E+00  0.00000000E+00
  0.00000000E+00  0.00000000E+00  0.00000000E+00
  0.00000000E+00  0.00000000E+00  0.00000000E+00
  0.00000000E+00  0.00000000E+00  0.00000000E+00
  0.00000000E+00  0.00000000E+00  0.00000000E+00
  0.00000000E+00  0.00000000E+00  0.00000000E+00
  0.00000000E+00  0.00000000E+00  0.00000000E+00
  0.00000000E+00  0.00000000E+00  0.00000000E+00
  0.00000000E+00  0.00000000E+00  0.00000000E+00
  0.00000000E+00  0.00000000E+00  0.00000000E+00
  0.00000000E+00  0.00000000E+00  0.00000000E+00
  0.00000000E+00  0.00000000E+00  0.00000000E+00
  0.00000000E+00  0.00000000E+00  0.00000000E+00
  0.00000000E+00  0.00000000E+00  0.00000000E+00
  0.00000000E+00  0.00000000E+00  0.00000000E+00
  0.00000000E+00  0.00000000E+00  0.00000000E+00
  0.00000000E+00  0.00000000E+00  0.00000000E+00
  0.00000000E+00  0.00000000E+00  0.00000000E+00
  0.00000000E+00  0.00000000E+00  0.00000000E+00
  0.00000000E+00  0.00000000E+00  0.00000000E+00
  0.00000000E+00  0.00000000E+00  0.00000000E+00
  0.00000000E+00  0.00000000E+00  0.00000000E+00
  0.00000000E+00  0.00000000E+00  0.00000000E+00
  0.00000000E+00  0.00000000E+00  0.00000000E+00
  0.00000000E+00  0.00000000E+00  0.00000000E+00
  0.00000000E+00  0.00000000E+00  0.00000000E+00
  0.00000000E+00  0.00000000E+00  0.00000000E+00
  0.00000000E+00  0.00000000E+00  0.00000000E+00
  0.00000000E+00  0.00000000E+00  0.00000000E+00
  0.00000000E+00  0.00000000E+00  0.00000000E+00
  0.00000000E+00  0.00000000E+00  0.00000000E+00
  0.00000000E+00  0.00000000E+00  0.00000000E+00
  0.00000000E+00  0.00000000E+00  0.00000000E+00
  0.00000000E+00  0.00000000E+00  0.00000000E+00
  0.00000000E+00  0.00000000E+00  0.00000000E+00
  0.00000000E+00  0.00000000E+00  0.00000000E+00
  0.00000000E+00  0.00000000E+00  0.00000000E+00
  0.00000000E+00  0.00000000E+00  0.00000000E+00
  0.00000000E+00  0.00000000E+00  0.00000000E+00
  0.00000000E+00  0.00000000E+00  0.00000000E+00
  0.00000000E+00  0.00000000E+00  0.00000000E+00
  0.00000000E+00  0.00000000E+00  0.00000000E+00
