Co9 S8                                  
   1.00000000000000     
    -5.3797989091681506   -5.3764431754816870    0.0002338154030985
    -5.3799159554811737    0.0004034763322639   -5.3794646426790642
     0.0003885708697273   -5.3765368477006614   -5.3794336837507695
   Co   S 
     9     8
Direct
  0.4999756471519399  0.4999770024943558  0.5000294431694461
  0.6184016996341088  0.1273073476445418  0.1270311714914089
  0.1273225431885848  0.6184171865696155  0.1272675098247954
  0.1270999198703482  0.1272500920794210  0.6183623307583883
  0.1272715724060822  0.1271042697132387  0.1272819971248206
  0.3816637271116565  0.8727057833936261  0.8728717327611658
  0.8726954155445975  0.3816576093580512  0.8727360218323902
  0.8729872371501212  0.8727262045821400  0.3815842405800222
  0.8727270195326793  0.8729915229840399  0.8727012873825170
  0.2500339018191103  0.2500335441023963  0.2499637289301480
  0.7500336184974162  0.7500330997727179  0.7499711174574046
  0.7413943511068567  0.7413874656443190  0.2586100939360465
  0.7414458212201682  0.2583584391193396  0.2585554850051029
  0.7411517133685344  0.2589394251041880  0.7410631094592560
  0.2583699497929088  0.7414482337504964  0.7416315048608121
  0.2589412674100385  0.7411667503615401  0.2588331912653600
  0.2584845951948554  0.2584960233259652  0.7415060341609088
 
  0.00000000E+00  0.00000000E+00  0.00000000E+00
  0.00000000E+00  0.00000000E+00  0.00000000E+00
  0.00000000E+00  0.00000000E+00  0.00000000E+00
  0.00000000E+00  0.00000000E+00  0.00000000E+00
  0.00000000E+00  0.00000000E+00  0.00000000E+00
  0.00000000E+00  0.00000000E+00  0.00000000E+00
  0.00000000E+00  0.00000000E+00  0.00000000E+00
  0.00000000E+00  0.00000000E+00  0.00000000E+00
  0.00000000E+00  0.00000000E+00  0.00000000E+00
  0.00000000E+00  0.00000000E+00  0.00000000E+00
  0.00000000E+00  0.00000000E+00  0.00000000E+00
  0.00000000E+00  0.00000000E+00  0.00000000E+00
  0.00000000E+00  0.00000000E+00  0.00000000E+00
  0.00000000E+00  0.00000000E+00  0.00000000E+00
  0.00000000E+00  0.00000000E+00  0.00000000E+00
  0.00000000E+00  0.00000000E+00  0.00000000E+00
  0.00000000E+00  0.00000000E+00  0.00000000E+00
