Ca4 V4 P6 O24                           
   1.00000000000000     
     2.5995379999999999    7.2712570000000003    4.3903230000000004
    -0.0044950000000000    0.0435640000000000    8.8039760000000005
     7.6821500000000000    0.0283150000000000    4.3029950000000001
   Ca   V    P    O 
     4     4     6    24
Direct
  0.3925418425104900  0.6511213266157070  0.5016356958206014
  0.9486171001142157  0.0100582933861264  0.0186337990352647
  0.3796843122186538  0.7471510888249718  0.0850824916309338
  0.1150953482490092  0.3865308467425971  0.7541676320007809
  0.6470665433434540  0.6309655811625299  0.6535505736864128
  0.1444780778569136  0.1420235043511869  0.1571650749030309
  0.8563311184519948  0.8638464064161124  0.8386193934815025
  0.3536010520775463  0.3468043629018360  0.3498168045406698
  0.2389748383927168  0.5549293193990282  0.9519917211547655
  0.0368021066760323  0.7551890153731072  0.4530256273234896
  0.9497886243890733  0.2542660188218533  0.5578724471906017
  0.4592894414981343  0.0373486576343207  0.7482559945785870
  0.5476815268818690  0.9477006699271302  0.2437817554066750
  0.7499896510176369  0.4587960042482814  0.0358049654722805
  0.5710939458210714  0.7985982303320603  0.4278665502824726
  0.2661369289962967  0.0689228591693903  0.9101763991164814
  0.4091106700365485  0.5670787302392812  0.7743980331341331
  0.9095407801960809  0.2728077607660566  0.0597268018710110
  0.7704618235853822  0.4225006722234708  0.5631714354492695
  0.0633390267462177  0.8999089277211033  0.2589143205161356
  0.9067436968331198  0.0971742249652366  0.7449235544518539
  0.5833161035124714  0.4742043811942536  0.2131156186096424
  0.7313146847585451  0.8994804837258632  0.0913785902763838
  0.2228953520957457  0.5874082257918468  0.4296577158844800
  0.0830166644144771  0.7427899881542880  0.9169582120137635
  0.4325179721763155  0.2133520906898755  0.5869583439910760
  0.1926519631769975  0.3966896205533283  0.9783146104607909
  0.8775491183839172  0.6954909299243524  0.5249340863303907
  0.0134247070681510  0.1960884173017873  0.3965308717646909
  0.4855153505248118  0.8551391198122149  0.7405443419317562
  0.3950817458280862  0.9217137451962343  0.2272541754870268
  0.6890437157780752  0.4739314105901212  0.8924861949179417
  0.2753993825636371  0.5355288467901970  0.1137470460266409
  0.0412007587123563  0.8063344859728465  0.5931489678132175
  0.1002171003975813  0.2947057932172729  0.5581786501519834
  0.6103634379349535  0.0000574109006706  0.8085579866818788
  0.5011989882439611  0.1370131062953384  0.2412115005319242
  0.8289391508978676  0.6131741054961861  0.9495847026273926
 
             NaN             NaN             NaN
             NaN             NaN             NaN
             NaN             NaN             NaN
             NaN             NaN             NaN
             NaN             NaN             NaN
             NaN             NaN             NaN
             NaN             NaN             NaN
             NaN             NaN             NaN
             NaN             NaN             NaN
             NaN             NaN             NaN
             NaN             NaN             NaN
             NaN             NaN             NaN
             NaN             NaN             NaN
             NaN             NaN             NaN
             NaN             NaN             NaN
             NaN             NaN             NaN
             NaN             NaN             NaN
             NaN             NaN             NaN
             NaN             NaN             NaN
             NaN             NaN             NaN
             NaN             NaN             NaN
             NaN             NaN             NaN
             NaN             NaN             NaN
             NaN             NaN             NaN
             NaN             NaN             NaN
             NaN             NaN             NaN
             NaN             NaN             NaN
             NaN             NaN             NaN
             NaN             NaN             NaN
             NaN             NaN             NaN
             NaN             NaN             NaN
             NaN             NaN             NaN
             NaN             NaN             NaN
             NaN             NaN             NaN
             NaN             NaN             NaN
             NaN             NaN             NaN
             NaN             NaN             NaN
             NaN             NaN             NaN
