Ca4 V4 P6 O24                           
   1.00000000000000     
     2.5995379999999999    7.2712570000000003    4.3903230000000004
    -0.0044950000000000    0.0435640000000000    8.8039760000000005
     7.6821500000000000    0.0283150000000000    4.3029950000000001
   Ca   V    P    O 
     4     4     6    24
Direct
  0.3925398543854902  0.6511266632075137  0.5016437218823737
  0.9486384249089447  0.0100450637725185  0.0186035283648937
  0.3797190029867277  0.7471344576786519  0.0850708491627793
  0.1150715810084101  0.3865562372038168  0.7541712291250642
  0.6470737435021086  0.6309597604242765  0.6535532605502015
  0.1444617044207676  0.1420356371571465  0.1571609837138135
  0.8562976260050656  0.8638470210840160  0.8385913035611323
  0.3536039042556386  0.3468216178284741  0.3497966648403694
  0.2389853193930940  0.5549190487615088  0.9519860577912369
  0.0368069626458231  0.7551843630252846  0.4530425198268385
  0.9497873963115819  0.2542425447259674  0.5579053645954237
  0.4592928331360029  0.0373250195766597  0.7482668058285937
  0.5477013699276522  0.9476882128369676  0.2437793749127423
  0.7499950336776834  0.4588068489514510  0.0357970859515089
  0.5710979427172157  0.7985940440198757  0.4278545096569507
  0.2661611269090777  0.0689104735109556  0.9101580351713883
  0.4090961480539899  0.5670975158321624  0.7744047149091003
  0.9095330157368425  0.2728127029911380  0.0597165059660046
  0.7704592213350756  0.4224977220080675  0.5631788604112827
  0.0633376756166032  0.8998929972753659  0.2589231297361792
  0.9067337933082300  0.0971701219378142  0.7449309639492873
  0.5833220555845353  0.4742000307422960  0.2131253702830166
  0.7313082917919815  0.8995108975122896  0.0913559367369266
  0.2228990651999481  0.5874121319954494  0.4296609600171692
  0.0829558067524130  0.7428093571805395  0.9169475715887067
  0.4325320549736727  0.2133393780832968  0.5869959255690133
  0.1926519200399925  0.3967108285522385  0.9783023935678586
  0.8775270578393209  0.6954925057266683  0.5249536303636382
  0.0134062670122106  0.1961015043503553  0.3965430501012751
  0.4855142007551601  0.8551352466657077  0.7405348304164198
  0.3951125802491575  0.9216908394825331  0.2272521016036442
  0.6890359216666965  0.4739552338094453  0.8924899232838271
  0.2753926884208790  0.5355427440379715  0.1137371914964722
  0.0412055185166198  0.8063192968589743  0.5931581898238845
  0.1001981186585930  0.2947093394957361  0.5581970131263153
  0.6104300638498148  1.0000422487826723  0.8085540210921234
  0.5011917075180160  0.1370089706202445  0.2412168432413752
  0.8289378145692458  0.6131757947912544  0.9495822096086554
 
             NaN             NaN             NaN
             NaN             NaN             NaN
             NaN             NaN             NaN
             NaN             NaN             NaN
             NaN             NaN             NaN
             NaN             NaN             NaN
             NaN             NaN             NaN
             NaN             NaN             NaN
             NaN             NaN             NaN
             NaN             NaN             NaN
             NaN             NaN             NaN
             NaN             NaN             NaN
             NaN             NaN             NaN
             NaN             NaN             NaN
             NaN             NaN             NaN
             NaN             NaN             NaN
             NaN             NaN             NaN
             NaN             NaN             NaN
             NaN             NaN             NaN
             NaN             NaN             NaN
             NaN             NaN             NaN
             NaN             NaN             NaN
             NaN             NaN             NaN
             NaN             NaN             NaN
             NaN             NaN             NaN
             NaN             NaN             NaN
             NaN             NaN             NaN
             NaN             NaN             NaN
             NaN             NaN             NaN
             NaN             NaN             NaN
             NaN             NaN             NaN
             NaN             NaN             NaN
             NaN             NaN             NaN
             NaN             NaN             NaN
             NaN             NaN             NaN
             NaN             NaN             NaN
             NaN             NaN             NaN
             NaN             NaN             NaN
