Fe4 P1                                  
   1.00000000000000     
     4.3195881555771933   -0.0007159155185478   -0.0000194679693278
    -0.0007820315344072    4.2376881725761040   -0.0000119339757094
    -0.0000144868119070   -0.0000042181823738    4.2355853589019832
   Fe   P 
     4     1
Direct
  0.0000119740888645  0.0000017003939020 -0.0000000643003979
  0.4999676685708083  0.0000001995134141  0.4999999604397377
  0.4999961610873382  0.4999997028336710  0.0000000054485001
  0.0000131046465235  0.4999992418212107  0.5000000228635548
  0.5000110916064654  0.4999991554378019  0.5000000755486054
 
  0.00000000E+00  0.00000000E+00  0.00000000E+00
  0.00000000E+00  0.00000000E+00  0.00000000E+00
  0.00000000E+00  0.00000000E+00  0.00000000E+00
  0.00000000E+00  0.00000000E+00  0.00000000E+00
  0.00000000E+00  0.00000000E+00  0.00000000E+00
