Ca4 V4 P6 O24
1.0
2.560474 7.258673 4.349165
-0.004844 0.034165 8.787194
7.667158 0.035557 4.290402
Ca V P O
4 4 6 24
direct
0.353708 0.730715 0.555334 Ca
0.963828 0.003605 0.021907 Ca
0.402864 0.743504 0.104000 Ca
0.134025 0.405605 0.742757 Ca
0.646547 0.634373 0.632292 V
0.144663 0.148606 0.150797 V
0.844358 0.858661 0.856048 V
0.352089 0.347070 0.351873 V
0.246602 0.555535 0.948462 P
0.038139 0.751718 0.449220 P
0.960840 0.250464 0.556415 P
0.451795 0.036967 0.742639 P
0.536582 0.944800 0.250261 P
0.747890 0.455085 0.035176 P
0.563493 0.763793 0.410991 O
0.261309 0.064147 0.907923 O
0.403246 0.574461 0.760680 O
0.922673 0.282621 0.044099 O
0.778227 0.408776 0.561705 O
0.069574 0.910276 0.264761 O
0.936243 0.085761 0.738120 O
0.583645 0.423971 0.212120 O
0.715465 0.942784 0.085925 O
0.228742 0.590485 0.421117 O
0.084438 0.741766 0.925726 O
0.427490 0.223075 0.588624 O
0.192392 0.397910 0.983365 O
0.880040 0.705445 0.482991 O
0.034082 0.181760 0.397250 O
0.472582 0.873641 0.705923 O
0.384955 0.953702 0.203580 O
0.713736 0.492906 0.864363 O
0.296926 0.530176 0.104322 O
0.016945 0.778691 0.619437 O
0.107599 0.303780 0.548652 O
0.603265 0.988150 0.806834 O
0.468279 0.106855 0.312519 O
0.770774 0.624734 0.016493 O
