Ca1 Ni4 S6 O24
1.0
7.581911 0.275777 4.214125
2.777283 6.923264 4.514617
0.649800 0.242678 8.742391
Ca Ni S O
1 4 6 24
direct
0.373213 0.687273 0.549582 Ca
0.648479 0.646889 0.644318 Ni
0.140778 0.148874 0.148805 Ni
0.847519 0.842494 0.845917 Ni
0.355586 0.349315 0.350743 Ni
0.953077 0.247160 0.536098 S
0.451582 0.036098 0.751327 S
0.543611 0.963017 0.238520 S
0.749907 0.452852 0.045120 S
0.245065 0.536987 0.955596 S
0.041715 0.750297 0.453442 S
0.392010 0.594290 0.760517 O
0.933345 0.292260 0.043014 O
0.783239 0.402055 0.590883 O
0.056387 0.927892 0.295175 O
0.600375 0.767011 0.389924 O
0.305839 1.036321 0.938363 O
0.682137 0.965280 0.048316 O
0.205606 0.589622 0.409737 O
0.056681 0.695758 0.956433 O
0.400976 0.232051 0.602183 O
0.952859 0.057500 0.692524 O
0.599793 0.406895 0.235926 O
0.953799 0.258170 0.363245 O
0.462188 0.890769 0.707912 O
0.347295 0.985069 0.267053 O
0.701746 0.484500 0.893550 O
0.245398 0.359530 0.977667 O
0.867646 0.743382 0.487739 O
0.127211 0.256999 0.504685 O
0.640509 0.000087 0.741240 O
0.529451 0.112033 0.276940 O
0.759779 0.624964 0.019646 O
0.289649 0.510508 0.106356 O
0.043909 0.740473 0.626121 O
