Mn4 S8                                  
   1.00000000000000     
     6.1407990182968160   -0.0000000222604774    0.0000000042908781
    -0.0000000222833303    6.1407975048729675   -0.0000000071583918
     0.0000000046104391   -0.0000000069897254    6.1408486536540678
   Mn   S 
     4     8
Direct
  0.4999999228292253  0.4999998223198503  0.9999999600047715
  0.4999999292845771  0.0000001733951649  0.4999999608670009
  0.9999999263134924  0.4999998264015986  0.5000000412520791
  0.9999999263357182  0.0000001761353019  0.0000000408093612
  0.0979235535125795  0.9020763354807926  0.4020728721334663
  0.9020765248075904  0.4020765077870365  0.0979275085305815
  0.4020765373569972  0.0979235066433191  0.9020724989400932
  0.5979235479073850  0.5979236783280513  0.5979271197623390
  0.9020765211014634  0.0979234936277038  0.5979275010700675
  0.0979235464890991  0.5979236647879631  0.9020728601133143
  0.5979235400976393  0.9020763189656620  0.0979271288813663
  0.4020765239642188  0.4020764961275702  0.4020725076355589
 
  0.00000000E+00  0.00000000E+00  0.00000000E+00
  0.00000000E+00  0.00000000E+00  0.00000000E+00
  0.00000000E+00  0.00000000E+00  0.00000000E+00
  0.00000000E+00  0.00000000E+00  0.00000000E+00
  0.00000000E+00  0.00000000E+00  0.00000000E+00
  0.00000000E+00  0.00000000E+00  0.00000000E+00
  0.00000000E+00  0.00000000E+00  0.00000000E+00
  0.00000000E+00  0.00000000E+00  0.00000000E+00
  0.00000000E+00  0.00000000E+00  0.00000000E+00
  0.00000000E+00  0.00000000E+00  0.00000000E+00
  0.00000000E+00  0.00000000E+00  0.00000000E+00
  0.00000000E+00  0.00000000E+00  0.00000000E+00
