Co8 P4
1.0
5.646000 0.000000 0.000000
0.000000 3.513000 0.000000
0.000000 0.000000 6.608000
Co P
8 4
direct
0.356000 0.250000 0.435300 Co0+
0.856000 0.250000 0.064700 Co0+
0.644000 0.750000 0.564700 Co0+
0.144000 0.750000 0.935300 Co0+
0.468500 0.250000 0.834300 Co0+
0.968500 0.250000 0.665700 Co0+
0.531500 0.750000 0.165700 Co0+
0.031500 0.750000 0.334300 Co0+
0.746100 0.250000 0.375100 P0+
0.246100 0.250000 0.124900 P0+
0.253900 0.750000 0.624900 P0+
0.753900 0.750000 0.875100 P0+
