Ca2 Fe7 O11                             
   1.00000000000000     
     0.0011133019266154    3.0305637583610117    0.0019436740274364
     4.4812883751604815   -1.5158622939345678   -2.3740882208318976
    -8.8278604104191274   -0.0063516533736978  -11.0019793946440849
   Ca   Fe   O 
     2     7    11
Direct
  0.4155449927870549  0.8336923421167555  0.2745172105336238
  0.5843006584141932  0.1662004614444683  0.7254565809620601
  0.9999070959188145  0.0000121441515120  0.5000013300758610
  0.8783944946421940  0.7532296941039505  0.0499136503291027
  0.1230829323841647  0.2469032974979157  0.9500988070653449
  0.6356587714913147  0.2692676653786492  0.1447786542416054
  0.3642503207373693  0.7307490740910794  0.8551968260806433
  0.7035756672599547  0.4094210053142007  0.4008916152034985
  0.2963231785920541  0.5906050536365228  0.5991048668199568
  0.5007878951572238  0.0001305044757274  0.9999433993955051
  0.2399581972659348  0.4786315343430445  0.0904231849929431
  0.7595472207019967  0.5213413102836881  0.9097066135408127
  0.0118216846648167  0.0227167574160987  0.1726522102833457
  0.9873756618732585  0.9773189900738117  0.8273529770406682
  0.7465491255569390  0.4944227607696092  0.2723858457816206
  0.2532164831950325  0.5054233130543437  0.7275995979570311
  0.0648603624670017  0.1318880593159264  0.3766417020054789
  0.9349925587984416  0.8680889790462274  0.6233455688141447
  0.3359393137049977  0.6730603707610996  0.4529629896441989
  0.6639133843872287  0.3268966827253621  0.5470263692325332
 
  0.00000000E+00  0.00000000E+00  0.00000000E+00
  0.00000000E+00  0.00000000E+00  0.00000000E+00
  0.00000000E+00  0.00000000E+00  0.00000000E+00
  0.00000000E+00  0.00000000E+00  0.00000000E+00
  0.00000000E+00  0.00000000E+00  0.00000000E+00
  0.00000000E+00  0.00000000E+00  0.00000000E+00
  0.00000000E+00  0.00000000E+00  0.00000000E+00
  0.00000000E+00  0.00000000E+00  0.00000000E+00
  0.00000000E+00  0.00000000E+00  0.00000000E+00
  0.00000000E+00  0.00000000E+00  0.00000000E+00
  0.00000000E+00  0.00000000E+00  0.00000000E+00
  0.00000000E+00  0.00000000E+00  0.00000000E+00
  0.00000000E+00  0.00000000E+00  0.00000000E+00
  0.00000000E+00  0.00000000E+00  0.00000000E+00
  0.00000000E+00  0.00000000E+00  0.00000000E+00
  0.00000000E+00  0.00000000E+00  0.00000000E+00
  0.00000000E+00  0.00000000E+00  0.00000000E+00
  0.00000000E+00  0.00000000E+00  0.00000000E+00
  0.00000000E+00  0.00000000E+00  0.00000000E+00
  0.00000000E+00  0.00000000E+00  0.00000000E+00
