Ca19 V16 P24 O96                        
   1.00000000000000     
    -5.1871510000000001    7.3565149999999999    8.8840020000000006
     5.0975529999999996   -7.2766260000000003    8.7445860000000000
    10.2873169999999998    7.3525060000000000   -0.1536620000000000
   Ca   V    P    O 
    19    16    24    96
Direct
  0.5218764880742370  0.5821135932669201  0.4462163734796445
  0.5058899413499222  0.9789456923710470  0.0173753737979367
 -0.0092412467596959  0.9757574929303490  0.5308760960018856
  0.0017550737005134  0.4804476908822075  0.0177358895387721
  0.4817576535048607  0.0096212154666213  0.4886205975211380
  0.4791052216601661  0.5241525326316695  0.9837598048989378
  0.9746543918833018  0.5172959623061353  0.4908800795141036
  0.9782063126228944  0.0136820361292728  0.9954235377255310
  0.5678688102967864  0.4158415348420398  0.2354201276592428
  0.5659966854362497  0.9162757036247813  0.7376497653676177
  0.0730723622693029  0.9179543020939025  0.2457571731731093
  0.0696221766367295  0.4127551336807375  0.7362573494655581
  0.2543499808633536  0.5763212949329112  0.4323542870871446
  0.2582062174008992  0.0824158318915622  0.9286452933706479
  0.7453731598210434  0.0763116795493466  0.4191740000828612
  0.7523947553539793  0.5792035102181187  0.9244036448505013
  0.5795146721886987  0.2543525114274803  0.9189151348060982
  0.0755056491062544  0.2457535828557771  0.4205819279405016
  0.0753392051246357  0.7480534593304139  0.9192656031125913
  0.6453250946395213  0.6430887744077083  0.6527372857340950
  0.6430600625926243  0.1361926647752199  0.1456929505345606
  0.1473908734097788  0.1394731950008020  0.6416192768182858
  0.1436732873948030  0.6411583383225041  0.1394135186662298
  0.1453256891363474  0.1478194513166422  0.1453934678862444
  0.1446309462546913  0.6469128217759884  0.6454373706689699
  0.6464760612466705  0.6478797983290440  0.1522543541676928
  0.6451090004372034  0.1478901021744208  0.6459043242516646
  0.8576349230124700  0.8614214046271076  0.8425131245281656
  0.8522000671283467  0.3526291312561551  0.3503539112479905
  0.3544226472112469  0.3560182885065307  0.8463048464151361
  0.3535981244948406  0.8534897703010338  0.3526279586362747
  0.3523496355466970  0.3466828392515701  0.3524545367628568
  0.3503995175625934  0.8500002754978294  0.8540498980522169
  0.8495038158094024  0.8480937320486095  0.3443975750288101
  0.8500347823335132  0.3498740882620181  0.8495896874718009
  0.3991595071165123  0.7539264620569907  0.5985089170698994
  0.4024879153987462  0.2491448427293718  0.0930450234218523
  0.8999924697876642  0.2457839107903567  0.5940643489270963
  0.9005561235712063  0.7507652489490386  0.0927187197911242
  0.3950087973141371  0.5981605459624763  0.2407333839234714
  0.4038058599459613  0.1017473538071077  0.7547435441775276
  0.9019921440413510  0.1012411398080726  0.2540688200444839
  0.9027153711275693  0.6022468861495046  0.7550662423071242
  0.6059402783577251  0.4070500397370351  0.7527296293065560
  0.6004990388545181  0.8974919560117266  0.2590356014332139
  0.1102235714069484  0.9052251544685206  0.7619630350582939
  0.1052248809072133  0.4051938443590684  0.2597084357468138
  0.2423641272446483  0.3943573733088419  0.5915106901185243
  0.2422548581737735  0.8938838420999509  0.0952403938664134
  0.7538150121079465  0.8998466158945316  0.6015328143947908
  0.7433459825830439  0.3956217372789324  0.0954879889666966
  0.7472285568090855  0.5986671926359609  0.3931452386053306
  0.7364879457465960  0.0923634391045808  0.8895589059353264
  0.2360081681969914  0.0911856383819286  0.3921392813947043
  0.2339415591297316  0.5911029415172748  0.8884043931101248
  0.5985691470529069  0.2428368862758122  0.3938574707125306
  0.6014294644426225  0.7450354743034571  0.8949817198183334
  0.1029366597071245  0.7516403226508583  0.3957991731904475
  0.1026482481560989  0.2466959470950664  0.8926066641887932
  0.6872210319624579  0.6200998562740474  0.4962669263642204
  0.6578444888905803  0.0826233660789325  0.9830191946569796
  0.1550243753149621  0.0778397441524435  0.4835135814078741
  0.1542138749645980  0.5805782618783707  0.9812389397353597
  0.1590479843523731  0.4877927138812550  0.5772345620557381
  0.1622089293873217  0.9880254166273209  0.0791283906453637
  0.6693419951672195  0.9901326741792345  0.5822013945591525
  0.6629719922745010  0.4895659762138200  0.0782999683951458
  0.4929504267417401  0.6762554763414313  0.5919772870527973
  0.4896949963147311  0.1641353176166108  0.0728349494958927
  0.9892030390064961  0.1620957608219808  0.5769708131146776
  0.9882029340404072  0.6657388313991016  0.0747675602373592
  0.5852479165334467  0.1677416167998945  0.4895079117581277
  0.5976803590108407  0.6738395270799130  0.9935285994821162
  0.0922980579090456  0.6639472053524790  0.4805313902923722
  0.0898651028243538  0.1618445459320414  0.9797864157630444
  0.6021397195715051  0.4850673487447578  0.6630865924363428
  0.5945118220506083  0.9788903282538693  0.1685196185786341
  0.1001962909691524  0.9819366594032277  0.6709908635780956
  0.0913780585876695  0.4841812407857014  0.1706443603253932
  0.4889520855503963  0.5842349623832160  0.1642305281868934
  0.4857422054477095  0.0784480795304477  0.6677442715076568
  0.9865304899030152  0.0786799955296623  0.1692520530896957
  0.9826194737689308  0.5801776367128593  0.6659401236947071
  0.5101091907274703  0.4181976978952043  0.8304441524570612
  0.5052430926557888  0.9151357907571606  0.3322489225098196
  0.0166992580948583  0.9175099295335893  0.8404202947211528
  0.0119131559718335  0.4150189238602035  0.3392412824105805
  0.5190587102443287  0.3344566028702052  0.3932475773649449
  0.5140551885966208  0.8299595113070267  0.9002311531555137
  0.0125522332904293  0.8334479757186781  0.4055202506103491
  0.0180577301042087  0.3344742346111919  0.9039204876224014
  0.8166950640900419  0.5009791838664814  0.4092071331941733
  0.8277889910142591  0.0161358608642425  0.9026107341409555
  0.3263232537881590  0.0135134447154687  0.4016077571131682
  0.3231442090533679  0.5122867690809702  0.9000479918900366
  0.4101405891621645  0.5020733857418270  0.3188729203667648
  0.4184232947600223  0.0099253666097147  0.8381933037277705
  0.9140011679136453  0.0098985609962000  0.3377651802335346
  0.9193196697259743  0.5103387332914480  0.8376224682283425
  0.4113347142742101  0.8348843384045499  0.5083638183125497
  0.4228698807866804  0.3346685122460923  0.0056483615502663
  0.9207304836204334  0.3291432076592112  0.5053691914646843
  0.9175214202292105  0.8312023876047595  0.0012522697582796
  0.3258963504901117  0.4146144655321127  0.5072210927326231
  0.3310438415193834  0.9139574020730539  0.0147321711322906
  0.8194778648776914  0.8989538103431246  0.4993109033274186
  0.8284275122099248  0.4117624883500438  0.0102509030050765
  0.2982541926885781  0.6849831630548798  0.5850843137666492
  0.2970087182371118  0.1891773594346710  0.0814550035762646
  0.7961041205219738  0.1839196378895117  0.5802286312529457
  0.7957354037862550  0.6897338167162991  0.0839701428551981
  0.7896159231249238  0.6005096512956248  0.7190084097234781
  0.7917814718644365  0.1007565172367148  0.2099178943045557
  0.2920726010317713  0.1023065474835753  0.7145364990464471
  0.2938327269033868  0.5948211737975304  0.1799545792828426
  0.1068966504015769  0.2900175627427479  0.2207172804359661
  0.1110446670535522  0.7892744840320737  0.7249737542074273
  0.5978487861761270  0.7861784807914084  0.2122308403205866
  0.6087468495841790  0.2897026757698468  0.7194105555721927
  0.6839445270389330  0.8040941510634945  0.6300752294091650
  0.6726010444641786  0.2950120614761189  0.0826118058829806
  0.1704280902920405  0.2942773322330059  0.5758404249071445
  0.1732469858544474  0.7940667328989121  0.0731737904704301
  0.6573123307613505  0.5725140609473314  0.3104547415374563
  0.6687503082292727  0.0657919627254873  0.7911309961698368
  0.1673572158065012  0.0721808299124794  0.2923232141466828
  0.1638505066376101  0.5687315841374201  0.7906976721808526
  0.5852180274128066  0.6655440723925818  0.8035877599664277
  0.5870949744171746  0.1682988523897406  0.2972410837255843
  0.0895060760923627  0.1940759050911982  0.7847579585115818
  0.0996230712836015  0.6983110319064431  0.2873077510277382
  0.4158616214206191  0.3076250273744605  0.1987898556249434
  0.4060040797115599  0.8188719219984752  0.7019205627540687
  0.9171662809155520  0.8166884329852641  0.1943612663573003
  0.9112520278438095  0.3087735238499262  0.6981120837338971
  0.4010512644514835  0.6911939598125663  0.3225374069167198
  0.4249313916036910  0.2032712573770207  0.8216975660864408
  0.9227885249307302  0.2037127584673581  0.3190134039327406
  0.9241211180118202  0.7051420390663236  0.8190607824678844
  0.2040882791316774  0.4285543157081980  0.3276022065646043
  0.2067514752875705  0.9283506001726359  0.8332395303583993
  0.7008852801708569  0.9201398807083147  0.3250768680417901
  0.7005733772044304  0.4249710881374644  0.8315302328254431
  0.8334228527374964  0.9243618884292898  0.6892168089642186
  0.7875139103985890  0.4017372208083148  0.2056812631918132
  0.2812272979501731  0.3948180883755017  0.7039058375748481
  0.2807594267213918  0.8922552935054366  0.2077542886069707
  0.2731883644403695  0.2073252387063597  0.3937337738095469
  0.2731157775681771  0.7062754702891646  0.8880840167371474
  0.8160190501081537  0.6914326238923524  0.3612124529191830
  0.7720692688211419  0.2088519061502678  0.8870328236306201
  0.7111088349366116  0.2869847131882418  0.3947766185381525
  0.7059925146088354  0.8042323672644356  0.8830370967245478
  0.2064694296853102  0.8124617302773885  0.4099297631982834
  0.2124339206217144  0.2958050184666006  0.9029907504558995
 
             NaN             NaN             NaN
             NaN             NaN             NaN
             NaN             NaN             NaN
             NaN             NaN             NaN
             NaN             NaN             NaN
             NaN             NaN             NaN
             NaN             NaN             NaN
             NaN             NaN             NaN
             NaN             NaN             NaN
             NaN             NaN             NaN
             NaN             NaN             NaN
             NaN             NaN             NaN
             NaN             NaN             NaN
             NaN             NaN             NaN
             NaN             NaN             NaN
             NaN             NaN             NaN
             NaN             NaN             NaN
             NaN             NaN             NaN
             NaN             NaN             NaN
             NaN             NaN             NaN
             NaN             NaN             NaN
             NaN             NaN             NaN
             NaN             NaN             NaN
             NaN             NaN             NaN
             NaN             NaN             NaN
             NaN             NaN             NaN
             NaN             NaN             NaN
             NaN             NaN             NaN
             NaN             NaN             NaN
             NaN             NaN             NaN
             NaN             NaN             NaN
             NaN             NaN             NaN
             NaN             NaN             NaN
             NaN             NaN             NaN
             NaN             NaN             NaN
             NaN             NaN             NaN
             NaN             NaN             NaN
             NaN             NaN             NaN
             NaN             NaN             NaN
             NaN             NaN             NaN
             NaN             NaN             NaN
             NaN             NaN             NaN
             NaN             NaN             NaN
             NaN             NaN             NaN
             NaN             NaN             NaN
             NaN             NaN             NaN
             NaN             NaN             NaN
             NaN             NaN             NaN
             NaN             NaN             NaN
             NaN             NaN             NaN
             NaN             NaN             NaN
             NaN             NaN             NaN
             NaN             NaN             NaN
             NaN             NaN             NaN
             NaN             NaN             NaN
             NaN             NaN             NaN
             NaN             NaN             NaN
             NaN             NaN             NaN
             NaN             NaN             NaN
             NaN             NaN             NaN
             NaN             NaN             NaN
             NaN             NaN             NaN
             NaN             NaN             NaN
             NaN             NaN             NaN
             NaN             NaN             NaN
             NaN             NaN             NaN
             NaN             NaN             NaN
             NaN             NaN             NaN
             NaN             NaN             NaN
             NaN             NaN             NaN
             NaN             NaN             NaN
             NaN             NaN             NaN
             NaN             NaN             NaN
             NaN             NaN             NaN
             NaN             NaN             NaN
             NaN             NaN             NaN
             NaN             NaN             NaN
             NaN             NaN             NaN
             NaN             NaN             NaN
             NaN             NaN             NaN
             NaN             NaN             NaN
             NaN             NaN             NaN
             NaN             NaN             NaN
             NaN             NaN             NaN
             NaN             NaN             NaN
             NaN             NaN             NaN
             NaN             NaN             NaN
             NaN             NaN             NaN
             NaN             NaN             NaN
             NaN             NaN             NaN
             NaN             NaN             NaN
             NaN             NaN             NaN
             NaN             NaN             NaN
             NaN             NaN             NaN
             NaN             NaN             NaN
             NaN             NaN             NaN
             NaN             NaN             NaN
             NaN             NaN             NaN
             NaN             NaN             NaN
             NaN             NaN             NaN
             NaN             NaN             NaN
             NaN             NaN             NaN
             NaN             NaN             NaN
             NaN             NaN             NaN
             NaN             NaN             NaN
             NaN             NaN             NaN
             NaN             NaN             NaN
             NaN             NaN             NaN
             NaN             NaN             NaN
             NaN             NaN             NaN
             NaN             NaN             NaN
             NaN             NaN             NaN
             NaN             NaN             NaN
             NaN             NaN             NaN
             NaN             NaN             NaN
             NaN             NaN             NaN
             NaN             NaN             NaN
             NaN             NaN             NaN
             NaN             NaN             NaN
             NaN             NaN             NaN
             NaN             NaN             NaN
             NaN             NaN             NaN
             NaN             NaN             NaN
             NaN             NaN             NaN
             NaN             NaN             NaN
             NaN             NaN             NaN
             NaN             NaN             NaN
             NaN             NaN             NaN
             NaN             NaN             NaN
             NaN             NaN             NaN
             NaN             NaN             NaN
             NaN             NaN             NaN
             NaN             NaN             NaN
             NaN             NaN             NaN
             NaN             NaN             NaN
             NaN             NaN             NaN
             NaN             NaN             NaN
             NaN             NaN             NaN
             NaN             NaN             NaN
             NaN             NaN             NaN
             NaN             NaN             NaN
             NaN             NaN             NaN
             NaN             NaN             NaN
             NaN             NaN             NaN
             NaN             NaN             NaN
             NaN             NaN             NaN
             NaN             NaN             NaN
             NaN             NaN             NaN
             NaN             NaN             NaN
             NaN             NaN             NaN
             NaN             NaN             NaN
             NaN             NaN             NaN
             NaN             NaN             NaN
             NaN             NaN             NaN
             NaN             NaN             NaN
