Ca19 V16 P24 O96
1.0
-5.187151 7.356515 8.884002
5.097553 -7.276626 8.744586
10.287317 7.352506 -0.153662
Ca V P O
19 16 24 96
direct
0.527594 0.583963 0.476750 Ca
0.505379 0.977505 0.020131 Ca
0.001600 0.976161 0.520270 Ca
0.001871 0.479789 0.018010 Ca
0.484055 0.008740 0.490069 Ca
0.473702 0.517281 0.996629 Ca
0.978356 0.520605 0.488495 Ca
0.978446 0.015633 0.993567 Ca
0.572257 0.424438 0.251608 Ca
0.568864 0.914329 0.738258 Ca
0.072448 0.916081 0.242839 Ca
0.068511 0.414753 0.737137 Ca
0.267844 0.578286 0.436067 Ca
0.257370 0.082159 0.926613 Ca
0.751668 0.076166 0.424124 Ca
0.753940 0.577983 0.925649 Ca
0.576812 0.249969 0.920129 Ca
0.075150 0.246893 0.420402 Ca
0.075170 0.747274 0.919093 Ca
0.642151 0.639220 0.642178 V
0.645377 0.138967 0.144699 V
0.146736 0.138856 0.642059 V
0.148398 0.638622 0.139044 V
0.146448 0.147730 0.146010 V
0.145119 0.647174 0.645226 V
0.647291 0.648567 0.147400 V
0.645092 0.147871 0.646308 V
0.855144 0.857398 0.846942 V
0.852296 0.355433 0.351093 V
0.354132 0.356147 0.848145 V
0.351623 0.856086 0.351706 V
0.349903 0.349127 0.350767 V
0.350769 0.849237 0.851287 V
0.848759 0.847319 0.349028 V
0.849781 0.348327 0.850339 V
0.400689 0.750802 0.596129 P
0.402205 0.249130 0.094828 P
0.901013 0.246586 0.593917 P
0.901691 0.748496 0.093911 P
0.396280 0.598600 0.244091 P
0.403252 0.100695 0.753596 P
0.902346 0.100688 0.253068 P
0.900671 0.601325 0.751941 P
0.604992 0.405313 0.758456 P
0.603106 0.899963 0.258910 P
0.107742 0.904356 0.760837 P
0.107094 0.405617 0.260825 P
0.242179 0.393261 0.593298 P
0.242651 0.894628 0.093595 P
0.747379 0.896348 0.596410 P
0.742337 0.394508 0.095195 P
0.740718 0.596274 0.394930 P
0.735886 0.091371 0.890309 P
0.237402 0.092452 0.390388 P
0.234683 0.591248 0.887845 P
0.599896 0.245706 0.393973 P
0.601169 0.745358 0.892264 P
0.104676 0.751855 0.394241 P
0.102257 0.247508 0.893808 P
0.665891 0.589144 0.489783 O
0.657473 0.080717 0.984113 O
0.158098 0.079117 0.483258 O
0.155127 0.579468 0.980734 O
0.161441 0.487649 0.577870 O
0.161441 0.987987 0.077803 O
0.664693 0.988848 0.579589 O
0.660884 0.487553 0.080530 O
0.488148 0.667268 0.582564 O
0.490393 0.164695 0.075862 O
0.989148 0.161946 0.574755 O
0.990010 0.664309 0.075605 O
0.591445 0.165221 0.484460 O
0.593631 0.663526 0.982407 O
0.099431 0.664855 0.479329 O
0.091007 0.164253 0.982548 O
0.595679 0.483076 0.668949 O
0.593201 0.984338 0.172843 O
0.097107 0.980849 0.669626 O
0.093415 0.482134 0.169717 O
0.492916 0.586711 0.170548 O
0.486042 0.079876 0.666904 O
0.987345 0.081428 0.168143 O
0.983685 0.581660 0.664921 O
0.511707 0.416845 0.838092 O
0.508097 0.909885 0.334227 O
0.014234 0.916495 0.839381 O
0.012573 0.414916 0.338757 O
0.510981 0.326692 0.399314 O
0.513869 0.830028 0.903188 O
0.009240 0.827483 0.403593 O
0.015510 0.333223 0.903127 O
0.822966 0.507518 0.404093 O
0.826620 0.014298 0.902216 O
0.329998 0.017392 0.400102 O
0.324966 0.513715 0.898934 O
0.411891 0.506117 0.325934 O
0.419004 0.008475 0.836132 O
0.917072 0.007455 0.334443 O
0.916998 0.508014 0.833201 O
0.412710 0.833911 0.506985 O
0.420871 0.332102 0.005183 O
0.921447 0.331432 0.506463 O
0.920543 0.831791 0.005024 O
0.327927 0.410966 0.510108 O
0.329872 0.914900 0.011327 O
0.826059 0.911044 0.505049 O
0.827746 0.414698 0.010285 O
0.295481 0.688894 0.586095 O
0.297648 0.187358 0.082445 O
0.796223 0.186212 0.580114 O
0.797142 0.687309 0.081025 O
0.789362 0.600621 0.710541 O
0.792720 0.098647 0.207909 O
0.291956 0.099749 0.712160 O
0.298980 0.586721 0.176332 O
0.110327 0.289404 0.224559 O
0.107972 0.788199 0.724446 O
0.603944 0.790655 0.208026 O
0.606393 0.288637 0.723136 O
0.677146 0.797145 0.596656 O
0.675257 0.292779 0.077285 O
0.170325 0.293894 0.576914 O
0.174118 0.793945 0.073934 O
0.670325 0.577876 0.296313 O
0.666559 0.067345 0.792366 O
0.167582 0.069688 0.292170 O
0.164338 0.568649 0.790334 O
0.589111 0.684029 0.788947 O
0.595875 0.181856 0.293084 O
0.091935 0.189787 0.788193 O
0.105078 0.697314 0.286654 O
0.414475 0.311427 0.198461 O
0.412533 0.814819 0.700090 O
0.914700 0.810219 0.198233 O
0.913389 0.306885 0.699183 O
0.390683 0.696741 0.317299 O
0.421349 0.201825 0.822285 O
0.919326 0.201754 0.321790 O
0.919952 0.701884 0.820949 O
0.204506 0.431980 0.329859 O
0.205114 0.927664 0.831029 O
0.702156 0.921792 0.327230 O
0.702724 0.425522 0.830618 O
0.805793 0.908221 0.698722 O
0.787453 0.397293 0.204910 O
0.282517 0.394059 0.705025 O
0.283978 0.895350 0.204991 O
0.271385 0.209394 0.389776 O
0.271899 0.707102 0.887538 O
0.798787 0.702430 0.392833 O
0.772761 0.207301 0.888593 O
0.704212 0.304956 0.398041 O
0.706998 0.803370 0.895031 O
0.201686 0.823651 0.406998 O
0.209691 0.301643 0.903461 O
