Ca1 Co4 S6 O24
1.0
7.469669 0.233470 4.681213
2.717214 6.954792 4.705882
0.343770 0.213704 8.795962
Ca Co S O
1 4 6 24
direct
0.436909 0.591739 0.525698 Ca
0.645096 0.644736 0.648598 Co
0.145916 0.149245 0.144785 Co
0.846173 0.845686 0.846839 Co
0.349612 0.350145 0.351247 Co
0.953128 0.248621 0.534562 S
0.456883 0.040755 0.746771 S
0.538796 0.957316 0.244228 S
0.747847 0.453595 0.043857 S
0.247669 0.536093 0.953147 S
0.040462 0.749513 0.459071 S
0.382939 0.611944 0.752933 O
0.944615 0.309667 0.025650 O
0.763526 0.389757 0.605944 O
0.027727 0.943231 0.318880 O
0.612261 0.758893 0.382243 O
0.326456 0.017985 0.950576 O
0.671808 0.972252 0.042689 O
0.231154 0.606069 0.391394 O
0.049558 0.675361 0.972096 O
0.378722 0.241016 0.614581 O
0.968981 0.051661 0.677465 O
0.609266 0.383690 0.241818 O
0.963575 0.272370 0.350537 O
0.471727 0.897988 0.699282 O
0.343687 0.979310 0.278226 O
0.697988 0.481948 0.895823 O
0.269600 0.352371 0.967276 O
0.885801 0.711511 0.491469 O
0.109083 0.284063 0.506265 O
0.650726 0.016481 0.714165 O
0.522822 0.103926 0.285734 O
0.730764 0.636497 0.025915 O
0.297916 0.509524 0.099301 O
0.031992 0.725999 0.643748 O
