Ni12 P4                                 
   1.00000000000000     
    -0.0035368744667308    0.0054968106452980   -4.2629825467949543
    -4.3827728883634647   -4.3812154625547537   -2.1294001786688987
    -4.3746355101799201    4.3790085002010182   -2.1408162602707459
   Ni   P 
    12     4
Direct
  0.1305655439375396  0.0329594126330212  0.1895033768038380
  0.3507561071936781  0.9662919524923547  0.8116993588704773
  0.6815792704929616  0.1882127577733399  0.9627093503087615
  0.8338716531891822  0.8125239729366385  0.0373856592947941
  0.9461474344728099  0.6668966406961913  0.3999323183376396
  0.0126110812211350  0.3330362046703603  0.5991836655521976
  0.6543171026373683  0.3981347478327922  0.3324962640901782
  0.3888031038705675  0.6025566448253992  0.6673037549497219
  0.5355338230020680  0.0506348924125826  0.3904047057430869
  0.9784349530904849  0.9483606888362267  0.6100943042209634
  0.0749934123046578  0.3899524247756851  0.9483515926898394
  0.4100713262513448  0.6115466332706039  0.0510703507314027
  0.4342263272036949  0.7618529433130743  0.3323696884995851
  0.5283931818580915  0.2372362779559782  0.6674806157268233
  0.2359017060617793  0.3307675130065388  0.2359450275235674
  0.8037939732126237  0.6690362925692130  0.7640699666571240
 
  0.00000000E+00  0.00000000E+00  0.00000000E+00
  0.00000000E+00  0.00000000E+00  0.00000000E+00
  0.00000000E+00  0.00000000E+00  0.00000000E+00
  0.00000000E+00  0.00000000E+00  0.00000000E+00
  0.00000000E+00  0.00000000E+00  0.00000000E+00
  0.00000000E+00  0.00000000E+00  0.00000000E+00
  0.00000000E+00  0.00000000E+00  0.00000000E+00
  0.00000000E+00  0.00000000E+00  0.00000000E+00
  0.00000000E+00  0.00000000E+00  0.00000000E+00
  0.00000000E+00  0.00000000E+00  0.00000000E+00
  0.00000000E+00  0.00000000E+00  0.00000000E+00
  0.00000000E+00  0.00000000E+00  0.00000000E+00
  0.00000000E+00  0.00000000E+00  0.00000000E+00
  0.00000000E+00  0.00000000E+00  0.00000000E+00
  0.00000000E+00  0.00000000E+00  0.00000000E+00
  0.00000000E+00  0.00000000E+00  0.00000000E+00
