Ca1 Co4 S6 O24
1.0
7.452864 0.260587 4.718186
2.736164 6.935960 4.748142
0.372442 0.236306 8.801334
Ca Co S O
1 4 6 24
direct
0.468186 0.543279 0.511775 Ca
0.644470 0.645439 0.647645 Co
0.147255 0.150494 0.144899 Co
0.846626 0.846091 0.846168 Co
0.347802 0.349508 0.351846 Co
0.952212 0.247866 0.536553 S
0.457858 0.041310 0.746720 S
0.537858 0.956060 0.244470 S
0.747947 0.454886 0.043460 S
0.247812 0.536053 0.952590 S
0.040475 0.749695 0.459128 S
0.378356 0.619826 0.749451 O
0.951062 0.316710 0.018903 O
0.754382 0.382589 0.616778 O
0.018690 0.950610 0.325885 O
0.618062 0.753980 0.378040 O
0.329953 0.012844 0.953668 O
0.668982 0.977385 0.038995 O
0.238823 0.613123 0.381673 O
0.043460 0.668042 0.979930 O
0.373526 0.244829 0.617537 O
0.976568 0.045114 0.673607 O
0.614338 0.375782 0.245062 O
0.963668 0.279899 0.347728 O
0.475872 0.899918 0.696257 O
0.342174 0.975944 0.281590 O
0.697735 0.481489 0.896967 O
0.280342 0.347587 0.964176 O
0.891402 0.705090 0.487458 O
0.101751 0.292105 0.509953 O
0.652942 0.021927 0.708478 O
0.520096 0.100997 0.289060 O
0.720439 0.642341 0.028089 O
0.299787 0.509848 0.097181 O
0.029920 0.716631 0.649738 O
