Mn1 S1                                  
   1.00000000000000     
    -2.6284378511164403   -2.6284378201797605    0.0000373326376893
    -2.6284377899733800    0.0000372723510231   -2.6284369700821766
     0.0000373179882365   -2.6284378050050905   -2.6284370149952405
   Mn   S 
     1     1
Direct
  0.9999999819236436  0.9999999806461375  0.0000000182147417
  0.5000000180763564  0.5000000193538625  0.4999999817852583
 
  0.00000000E+00  0.00000000E+00  0.00000000E+00
  0.00000000E+00  0.00000000E+00  0.00000000E+00
