Ca4 Ti4 Si6 O24                         
   1.00000000000000     
     0.1144241563256606   -0.0635103397588492    8.8810230510371007
     7.6809400052883996   -0.0635101592146549    4.4595636166683175
     2.5367155092744662    7.1878070499643716    4.3412948191699199
   Ca   Ti   Si   O 
     4     4     6    24
Direct
  0.4980875337791630  0.4976581322612432  0.4979626143319180
  0.9976602473838057  0.9980845433260015  0.9979575880702924
  0.0929328571906893  0.4029958759197640  0.7474663252591540
  0.9029864807968693  0.5929419359702024  0.2474587910110699
  0.6388061607701303  0.6509079819974986  0.6420754223428347
  0.1509226565518560  0.1388005757570525  0.1420612230906002
  0.8457874215005248  0.8569692448490898  0.8524834582440519
  0.3569559746547810  0.3457884453803430  0.3525016362918478
  0.5413071567007819  0.9546836878207898  0.2474203581138070
  0.7395238401402082  0.4652361854725697  0.0474543623811954
  0.2563601814238652  0.5310379928688604  0.9476316924507273
  0.0310342892503641  0.7563633338581468  0.4476280291878467
  0.9652433433875842  0.2395229927147611  0.5474458577207386
  0.4546927146619097  0.0413032564534532  0.7474197233763391
  0.7723894923243861  0.4199495558064257  0.5530358196067198
  0.0573129846942635  0.9330797686359844  0.2676927982735720
  0.5711967173840975  0.7525745320515753  0.4084995572463299
  0.2525798816599121  0.0711994659709063  0.9085068785135206
  0.4330810122998301  0.5573056145185475  0.7677057060045769
  0.9199542628424169  0.2723824211948696  0.0530386391146465
  0.0761014221674898  0.7237388612017668  0.9419615331132221
  0.4246300396055744  0.2434668868891734  0.5864771179627226
  0.9388458736207852  0.0628304056318569  0.7275529521018100
  0.5628268750374232  0.4388352327691862  0.2275665215572715
  0.7434693823179757  0.9246332920882381  0.0864867380575021
  0.2237356387550378  0.5761053276256547  0.4419744395108296
  0.3744861166748166  0.0004765886570439  0.1861126215209410
  0.7307522580231662  0.5186474767805578  0.8443960085107065
  0.2056430795401667  0.3725866713987855  0.9588629144781464
  0.8725900980860573  0.7056391752365414  0.4588681394373566
  0.0186629597710493  0.2307464084477857  0.3443882056390919
  0.5004783067928997  0.8744734165044434  0.6861364415006719
  0.4948186589381365  0.1221132897641368  0.3082281302522674
  0.7907596617409851  0.6232235288373147  0.0363451170190459
  0.2645402664907621  0.4782240437378533  0.1507216289404383
  0.9782066302653547  0.7645629000632468  0.6507115213933616
  0.1232225884261240  0.2907654193585500  0.5363494313837762
  0.6221149343488008  0.9948455321797809  0.8082140569890868
 
  0.00000000E+00  0.00000000E+00  0.00000000E+00
  0.00000000E+00  0.00000000E+00  0.00000000E+00
  0.00000000E+00  0.00000000E+00  0.00000000E+00
  0.00000000E+00  0.00000000E+00  0.00000000E+00
  0.00000000E+00  0.00000000E+00  0.00000000E+00
  0.00000000E+00  0.00000000E+00  0.00000000E+00
  0.00000000E+00  0.00000000E+00  0.00000000E+00
  0.00000000E+00  0.00000000E+00  0.00000000E+00
  0.00000000E+00  0.00000000E+00  0.00000000E+00
  0.00000000E+00  0.00000000E+00  0.00000000E+00
  0.00000000E+00  0.00000000E+00  0.00000000E+00
  0.00000000E+00  0.00000000E+00  0.00000000E+00
  0.00000000E+00  0.00000000E+00  0.00000000E+00
  0.00000000E+00  0.00000000E+00  0.00000000E+00
  0.00000000E+00  0.00000000E+00  0.00000000E+00
  0.00000000E+00  0.00000000E+00  0.00000000E+00
  0.00000000E+00  0.00000000E+00  0.00000000E+00
  0.00000000E+00  0.00000000E+00  0.00000000E+00
  0.00000000E+00  0.00000000E+00  0.00000000E+00
  0.00000000E+00  0.00000000E+00  0.00000000E+00
  0.00000000E+00  0.00000000E+00  0.00000000E+00
  0.00000000E+00  0.00000000E+00  0.00000000E+00
  0.00000000E+00  0.00000000E+00  0.00000000E+00
  0.00000000E+00  0.00000000E+00  0.00000000E+00
  0.00000000E+00  0.00000000E+00  0.00000000E+00
  0.00000000E+00  0.00000000E+00  0.00000000E+00
  0.00000000E+00  0.00000000E+00  0.00000000E+00
  0.00000000E+00  0.00000000E+00  0.00000000E+00
  0.00000000E+00  0.00000000E+00  0.00000000E+00
  0.00000000E+00  0.00000000E+00  0.00000000E+00
  0.00000000E+00  0.00000000E+00  0.00000000E+00
  0.00000000E+00  0.00000000E+00  0.00000000E+00
  0.00000000E+00  0.00000000E+00  0.00000000E+00
  0.00000000E+00  0.00000000E+00  0.00000000E+00
  0.00000000E+00  0.00000000E+00  0.00000000E+00
  0.00000000E+00  0.00000000E+00  0.00000000E+00
  0.00000000E+00  0.00000000E+00  0.00000000E+00
  0.00000000E+00  0.00000000E+00  0.00000000E+00
