Ca1 Fe4 S6 O24                          
   1.00000000000000     
     7.5503229999999997    0.2386510000000000    4.6262330000000000
     2.7152550000000000    7.0389980000000003    4.6231030000000004
     0.3555070000000000    0.2471140000000000    8.8518380000000008
   Ca   Fe   S    O 
     1     4     6    24
Direct
  0.4452903980460852  0.5450410939292104  0.5080812501969286
  0.6606293519956209  0.6375371935361986  0.6617572461621868
  0.1453073134217450  0.1541440192339028  0.1401964548365456
  0.8447026174823029  0.8559171473117722  0.8465098837671508
  0.3433736001788717  0.3452860634844023  0.3542943864614801
  0.9555945796657646  0.2514523757960200  0.5353259657144307
  0.4555902791861113  0.0548816897227485  0.7447748222410259
  0.5360674735989744  0.9511351528167502  0.2533226842840397
  0.7353383883516784  0.4704570502120718  0.0501539403312361
  0.2464624019326151  0.5356508975767236  0.9580386901975552
  0.0346787145985371  0.7564721054553892  0.4511841847079780
  0.3838299663838364  0.6192943267322739  0.7635511421739680
  0.9343584725326466  0.3381795442159890  0.0247764464913447
  0.7568460953212972  0.3840279742777216  0.6092405822647219
  0.0022024469217571  0.9593300033758044  0.3231314364569211
  0.6058145811318638  0.7558013841168548  0.3961855712405432
  0.3094036468513674  0.0275223475658206  0.9419309944885599
  0.6833907371280137  0.9703156801138457  0.0580887543836231
  0.2341613098880694  0.6278478904622281  0.3689653072064483
  0.0477553548940426  0.6690923647223940  0.9720663543183796
  0.3777133027053734  0.2550253705130580  0.6109359642711736
  0.9772046214065159  0.0487876986989013  0.6648878847631534
  0.5995259664770032  0.3965210560913268  0.2469056374942673
  0.9896374911881073  0.2808409682399984  0.3400813828191582
  0.4987510862853451  0.9093293625514978  0.6830549502770455
  0.3560885123926938  0.9590256549984577  0.2689809457733070
  0.6843678558631512  0.4900927433134574  0.9066504215801343
  0.2838436366653005  0.3493290221576812  0.9617272732631218
  0.8960673835979865  0.6972531557487650  0.4757715258293258
  0.0962807793052893  0.2972950271183168  0.5266994721760158
  0.6320268872829523  0.0440446751100584  0.7358042867598690
  0.4976463744394922  0.1038264111675108  0.3038455181045520
  0.7087349546048116  0.6616264697289822  0.0236269867203393
  0.2871123108559862  0.5076918152575547  0.1111042403428934
  0.0199030414586037  0.7234739089307552  0.6416878120663284
 
             NaN             NaN             NaN
             NaN             NaN             NaN
             NaN             NaN             NaN
             NaN             NaN             NaN
             NaN             NaN             NaN
             NaN             NaN             NaN
             NaN             NaN             NaN
             NaN             NaN             NaN
             NaN             NaN             NaN
             NaN             NaN             NaN
             NaN             NaN             NaN
             NaN             NaN             NaN
             NaN             NaN             NaN
             NaN             NaN             NaN
             NaN             NaN             NaN
             NaN             NaN             NaN
             NaN             NaN             NaN
             NaN             NaN             NaN
             NaN             NaN             NaN
             NaN             NaN             NaN
             NaN             NaN             NaN
             NaN             NaN             NaN
             NaN             NaN             NaN
             NaN             NaN             NaN
             NaN             NaN             NaN
             NaN             NaN             NaN
             NaN             NaN             NaN
             NaN             NaN             NaN
             NaN             NaN             NaN
             NaN             NaN             NaN
             NaN             NaN             NaN
             NaN             NaN             NaN
             NaN             NaN             NaN
             NaN             NaN             NaN
             NaN             NaN             NaN
