Ca1 V4 P6 O24                           
   1.00000000000000     
     2.5287389999999998    7.0340049999999996    4.4435950000000002
     0.1844900000000000    0.1264430000000000    8.7102170000000001
     7.4713250000000002    0.0857810000000000    4.4770700000000003
   Ca   V    P    O 
     1     4     6    24
Direct
  0.2526160977723358  0.8585915649679434  0.5958073599894914
  0.6517711120643732  0.6367397906232782  0.6437470370246864
  0.1349344476793990  0.1466758564458661  0.1372726313830687
  0.8422553715192925  0.8446130790341853  0.8601645665319788
  0.3638977547326498  0.3442350063021963  0.3576465934402288
  0.2535951071585108  0.5206993309388589  0.9601150179934022
  0.0333053272124116  0.7413865013699357  0.4671447790324648
  0.9660658275936864  0.2517292602382599  0.5169981535083517
  0.4505138965037700  0.0250442110401946  0.7498744662794409
  0.5475679525768425  0.9676286787831023  0.2387059240328298
  0.7472077329654147  0.4608820586362739  0.0455504263241555
  0.5816055681643448  0.7754966326093730  0.4103381752737952
  0.2932682941750531  0.0380963400656699  0.9376079887800747
  0.4232918140910305  0.5564080263882644  0.7739935382736479
  0.9260535571351152  0.2806136011020540  0.0420224956893902
  0.8004205801821028  0.4194828709119944  0.5752361176460581
  0.0671559520810797  0.9279682093321114  0.3051490849532706
  0.9379466857844790  0.0614046547966804  0.6762860780512637
  0.5769522557705853  0.4252026029168161  0.2226179466601197
  0.7068383127349095  0.9581830675943662  0.0503090056843186
  0.2008982599358973  0.5667966231679767  0.4177366517286044
  0.0797515830446985  0.7098494109345590  0.9246635431302884
  0.4299975050648064  0.2178084093883150  0.5854595285325997
  0.2234678414199367  0.3519775928060574  0.9799196574575476
  0.8460007985974743  0.7473821637535148  0.4909174515132015
  0.9748064374965382  0.2669253133864503  0.3306839537553050
  0.4557859921998098  0.8744196934257249  0.7045202253433031
  0.3516724381965085  1.0047416297413736  0.2452719943219847
  0.7001398828747355  0.5314692083075842  0.8636802833891760
  0.2873943531205725  0.4804831129718519  0.1316288548920303
  0.0297233861242957  0.7301383616353480  0.6500034219261763
  0.1592587469486499  0.2314090413757356  0.5031402990298711
  0.6471768260227463  0.9554978314608317  0.7717182723670849
  0.5296461633025689  0.1263265378813223  0.2819195762340026
  0.7776881876452715  0.6227017150599471  0.0361882319435139
 
             NaN             NaN             NaN
             NaN             NaN             NaN
             NaN             NaN             NaN
             NaN             NaN             NaN
             NaN             NaN             NaN
             NaN             NaN             NaN
             NaN             NaN             NaN
             NaN             NaN             NaN
             NaN             NaN             NaN
             NaN             NaN             NaN
             NaN             NaN             NaN
             NaN             NaN             NaN
             NaN             NaN             NaN
             NaN             NaN             NaN
             NaN             NaN             NaN
             NaN             NaN             NaN
             NaN             NaN             NaN
             NaN             NaN             NaN
             NaN             NaN             NaN
             NaN             NaN             NaN
             NaN             NaN             NaN
             NaN             NaN             NaN
             NaN             NaN             NaN
             NaN             NaN             NaN
             NaN             NaN             NaN
             NaN             NaN             NaN
             NaN             NaN             NaN
             NaN             NaN             NaN
             NaN             NaN             NaN
             NaN             NaN             NaN
             NaN             NaN             NaN
             NaN             NaN             NaN
             NaN             NaN             NaN
             NaN             NaN             NaN
             NaN             NaN             NaN
