Ca1 V4 P6 O24
1.0
2.528739 7.034005 4.443595
0.184490 0.126443 8.710217
7.471325 0.085781 4.477070
Ca V P O
1 4 6 24
direct
0.280194 0.831761 0.593375 Ca
0.648684 0.639309 0.645254 V
0.132590 0.144078 0.141900 V
0.844164 0.850580 0.859025 V
0.359443 0.352117 0.354253 V
0.249196 0.527547 0.962832 P
0.034191 0.746480 0.466676 P
0.959446 0.253880 0.520988 P
0.455799 0.030296 0.747996 P
0.536847 0.970478 0.242513 P
0.747020 0.460252 0.042852 P
0.577834 0.782944 0.414746 O
0.299993 0.048469 0.934312 O
0.414033 0.564723 0.772676 O
0.927602 0.282856 0.040161 O
0.794793 0.428950 0.563589 O
0.065419 0.925731 0.290186 O
0.933431 0.071150 0.694990 O
0.578570 0.426122 0.223658 O
0.694374 0.957112 0.055295 O
0.200481 0.567403 0.426662 O
0.071238 0.712658 0.933368 O
0.430803 0.219384 0.580636 O
0.217532 0.354247 0.996912 O
0.846521 0.742972 0.504716 O
0.965342 0.248917 0.346051 O
0.459560 0.873617 0.712920 O
0.341317 -0.001543 0.256978 O
0.697228 0.517757 0.867112 O
0.287689 0.499160 0.126957 O
0.034459 0.753558 0.637520 O
0.151554 0.245409 0.494996 O
0.652922 0.967687 0.762277 O
0.517866 0.135746 0.276175 O
0.777121 0.626952 0.022459 O
