Ca1 Fe4 S6 O24                          
   1.00000000000000     
     7.5503229999999997    0.2386510000000000    4.6262330000000000
     2.7152550000000000    7.0389980000000003    4.6231030000000004
     0.3555070000000000    0.2471140000000000    8.8518380000000008
   Ca   Fe   S    O 
     1     4     6    24
Direct
  0.4436700875069485  0.5477231953226732  0.5077041128914043
  0.6499197640032042  0.6451726710443079  0.6530639531987986
  0.1467832018105956  0.1506336568258150  0.1441663217991493
  0.8447234371557911  0.8553191952787337  0.8467828066538468
  0.3432504226280877  0.3503975396015520  0.3559195099882470
  0.9560708651877550  0.2509241386629295  0.5350724289048551
  0.4553256786395278  0.0541421010618880  0.7466553746570402
  0.5371797219485031  0.9519651362432108  0.2520874968396955
  0.7362077633046656  0.4696452338272528  0.0492044749134577
  0.2470956672559730  0.5352089711653053  0.9574053189664427
  0.0334980816082085  0.7566917971501104  0.4512706960860653
  0.3839616412592999  0.6184455449826274  0.7638811139542994
  0.9354944305423700  0.3359880970173170  0.0266739070819651
  0.7567301548222799  0.3831718401439601  0.6096697217313636
  0.0034861702426265  0.9591469945265564  0.3230307343925272
  0.6058107100526965  0.7561541203648754  0.3948803986206172
  0.3092153317459462  0.0280008587004990  0.9429970052380496
  0.6837402218146881  0.9690555309338973  0.0585819166152494
  0.2338534717818717  0.6296116352202286  0.3682561756641208
  0.0494893907657573  0.6695083357492498  0.9711043144642115
  0.3783186020049844  0.2539589617003180  0.6129751028616062
  0.9782667165943740  0.0476336788590942  0.6631932562707524
  0.6011406751395751  0.3963913678457895  0.2482364401215124
  0.9892431647023665  0.2812954476880628  0.3393695302443713
  0.4983107722808619  0.9085561984152671  0.6843077818168712
  0.3570196422063134  0.9592244268080981  0.2690782496131474
  0.6837861362115225  0.4901152588484377  0.9064754255914128
  0.2827913785630650  0.3492767943545004  0.9613198753910683
  0.8947717091223568  0.6978040099243509  0.4753821207766725
  0.0967427962523799  0.2961023513698259  0.5269858916101940
  0.6319293281049948  0.0435364284530419  0.7364409255067671
  0.4995613409144366  0.1022354273698367  0.3042024140644662
  0.7096465501241593  0.6609036466249308  0.0248927957432252
  0.2879283460677244  0.5065017162322413  0.1108646467584118
  0.0206783452750853  0.7232006231546088  0.6412304214250181
 
             NaN             NaN             NaN
             NaN             NaN             NaN
             NaN             NaN             NaN
             NaN             NaN             NaN
             NaN             NaN             NaN
             NaN             NaN             NaN
             NaN             NaN             NaN
             NaN             NaN             NaN
             NaN             NaN             NaN
             NaN             NaN             NaN
             NaN             NaN             NaN
             NaN             NaN             NaN
             NaN             NaN             NaN
             NaN             NaN             NaN
             NaN             NaN             NaN
             NaN             NaN             NaN
             NaN             NaN             NaN
             NaN             NaN             NaN
             NaN             NaN             NaN
             NaN             NaN             NaN
             NaN             NaN             NaN
             NaN             NaN             NaN
             NaN             NaN             NaN
             NaN             NaN             NaN
             NaN             NaN             NaN
             NaN             NaN             NaN
             NaN             NaN             NaN
             NaN             NaN             NaN
             NaN             NaN             NaN
             NaN             NaN             NaN
             NaN             NaN             NaN
             NaN             NaN             NaN
             NaN             NaN             NaN
             NaN             NaN             NaN
             NaN             NaN             NaN
