Ca4 V4 O12                              
   1.00000000000000     
     5.4191388531802511    0.0001224784778485    0.0000393391754865
    -0.0002098394788407    7.5017562444683845   -0.0328489544647804
    -0.0000071617364584   -0.0177616962884752    5.3258586544966393
   Ca   V    O 
     4     4    12
Direct
  0.5406945181719394  0.2492560007941620  0.5087484038963765
  0.0406981201134258  0.2507418817622380  0.9912517166801393
  0.4592587054493649  0.7510844169980260  0.4908595528228474
  0.9592579409089836  0.7489132407300545  0.0091399323432881
  0.0000465318737355  0.0019622528001833  0.4996682185979040
  0.5000461704311263  0.4980342191143592  0.0003373798754964
  0.9999971811925406  0.5011778757729743  0.5005644051375242
  0.5000012447300719  0.9988292059248849  0.9994381351223538
  0.9883525851307624  0.2560213990137683  0.4312984047853590
  0.4883514304127559  0.2439773160098966  0.0687070330668718
  0.0117958646446183  0.7445854048299410  0.5685827861891539
  0.5117994652363222  0.7554204626674093  0.9314197284958254
  0.7114590324192562  0.9628763577121049  0.2894436558644031
  0.2114483841903692  0.5371224317475409  0.2105487140986639
  0.2949904208769496  0.4645338401757684  0.7195977744431872
  0.7949998825630402  0.0354676523119366  0.7803981672572462
  0.2885751787332680  0.0382419977841550  0.7102808299559555
  0.7885771744517740  0.4617547827928803  0.7897139679168177
  0.7048302652545289  0.5355005154806918  0.2809400972327083
  0.2048199032151601  0.9644987455770107  0.2190610962178781
 
  0.00000000E+00  0.00000000E+00  0.00000000E+00
  0.00000000E+00  0.00000000E+00  0.00000000E+00
  0.00000000E+00  0.00000000E+00  0.00000000E+00
  0.00000000E+00  0.00000000E+00  0.00000000E+00
  0.00000000E+00  0.00000000E+00  0.00000000E+00
  0.00000000E+00  0.00000000E+00  0.00000000E+00
  0.00000000E+00  0.00000000E+00  0.00000000E+00
  0.00000000E+00  0.00000000E+00  0.00000000E+00
  0.00000000E+00  0.00000000E+00  0.00000000E+00
  0.00000000E+00  0.00000000E+00  0.00000000E+00
  0.00000000E+00  0.00000000E+00  0.00000000E+00
  0.00000000E+00  0.00000000E+00  0.00000000E+00
  0.00000000E+00  0.00000000E+00  0.00000000E+00
  0.00000000E+00  0.00000000E+00  0.00000000E+00
  0.00000000E+00  0.00000000E+00  0.00000000E+00
  0.00000000E+00  0.00000000E+00  0.00000000E+00
  0.00000000E+00  0.00000000E+00  0.00000000E+00
  0.00000000E+00  0.00000000E+00  0.00000000E+00
  0.00000000E+00  0.00000000E+00  0.00000000E+00
  0.00000000E+00  0.00000000E+00  0.00000000E+00
