Ca1 Fe4 P6 O24                          
   1.00000000000000     
     2.7220249999999999    6.8827939999999996    4.6636470000000001
     0.4287230000000000    0.3077810000000000    8.7313399999999994
     7.3826970000000003    0.3138650000000000    4.6586990000000004
   Ca   Fe   P    O 
     1     4     6    24
Direct
  0.4626470861076972  0.5338477824485013  0.5024742539169478
  0.6414866833467813  0.6481689155014652  0.6488727172920684
  0.1461715346476678  0.1565435112335873  0.1499587909804936
  0.8424193846685210  0.8509241747903424  0.8463839162973501
  0.3465946680754814  0.3528991252604344  0.3590247855568290
  0.2329593249975994  0.5382077380934266  0.9680385792093286
  0.0239858757838342  0.7687471870442086  0.4561026394541304
  0.9599559103669516  0.2413815554554069  0.5389599064712417
  0.4518582286219844  0.0420850186222558  0.7605318243669060
  0.5373143699913169  0.9684253525960493  0.2364637016599764
  0.7512036534087198  0.4667449921710231  0.0408251270818758
  0.6063168345770585  0.7586279402370359  0.3845651898698333
  0.3086219519130147  0.0157687792930993  0.9807909962884921
  0.3794882272812101  0.6155613762858616  0.7605667376345436
  0.9718777612420166  0.3277133718026023  0.0139808050793470
  0.7490825647372362  0.3855069167707518  0.6118045702495806
  0.0019925656119453  0.9892484120843557  0.3232544532385885
  0.9839047068363691  0.0196217546850811  0.6710234567577430
  0.6074351777908215  0.3935423933565942  0.2522936124572312
  0.6830630813611024  0.9899062944587109  0.0177729417444916
  0.2345638229109636  0.6268349183500521  0.3775976962694330
  0.0157630196426812  0.6786130217169553  0.9829790415245270
  0.3774258023414950  0.2556514156383873  0.6197755505879723
  0.2823835870289547  0.3301043460518437  0.9769871980326919
  0.8661451174930388  0.7341471087498254  0.4709260039634643
  0.9884369741519260  0.2897805392195206  0.3228907748257425
  0.4725603964646586  0.8868149299367400  0.7172296663756214
  0.3298655525068549  0.9833378475046229  0.2774061729226140
  0.7142372633317986  0.4865163296820578  0.8809258235413490
  0.2611452537329778  0.5165794800610847  0.1338490608859205
  0.0075412225989107  0.7166333547695602  0.6688920036885491
  0.1186272491198063  0.2704239594587758  0.5307017227904445
  0.6615947586219783  0.0199774120898997  0.7209142483939404
  0.5174453389480135  0.1285513299815633  0.2725021507879549
  0.7070359091813969  0.6775030820707045  0.0206392659439732
 
             NaN             NaN             NaN
             NaN             NaN             NaN
             NaN             NaN             NaN
             NaN             NaN             NaN
             NaN             NaN             NaN
             NaN             NaN             NaN
             NaN             NaN             NaN
             NaN             NaN             NaN
             NaN             NaN             NaN
             NaN             NaN             NaN
             NaN             NaN             NaN
             NaN             NaN             NaN
             NaN             NaN             NaN
             NaN             NaN             NaN
             NaN             NaN             NaN
             NaN             NaN             NaN
             NaN             NaN             NaN
             NaN             NaN             NaN
             NaN             NaN             NaN
             NaN             NaN             NaN
             NaN             NaN             NaN
             NaN             NaN             NaN
             NaN             NaN             NaN
             NaN             NaN             NaN
             NaN             NaN             NaN
             NaN             NaN             NaN
             NaN             NaN             NaN
             NaN             NaN             NaN
             NaN             NaN             NaN
             NaN             NaN             NaN
             NaN             NaN             NaN
             NaN             NaN             NaN
             NaN             NaN             NaN
             NaN             NaN             NaN
             NaN             NaN             NaN
