Ca1 Fe4 P6 O24
1.0
2.722025 6.882794 4.663647
0.428723 0.307781 8.731340
7.382697 0.313865 4.658699
Ca Fe P O
1 4 6 24
direct
0.466981 0.545470 0.514192 Ca
0.645877 0.642698 0.643265 Fe
0.148956 0.149724 0.149137 Fe
0.844160 0.844381 0.845677 Fe
0.352221 0.351583 0.351750 Fe
0.236654 0.535907 0.963096 P
0.034155 0.758336 0.457235 P
0.960620 0.238221 0.535620 P
0.456418 0.032783 0.758807 P
0.537419 0.963316 0.235537 P
0.759055 0.456280 0.034387 P
0.611336 0.753663 0.380242 O
0.319796 0.007705 0.980117 O
0.381188 0.610699 0.753502 O
0.979463 0.317105 0.008406 O
0.751789 0.381881 0.610994 O
0.009368 0.979154 0.319978 O
0.981567 0.018723 0.674145 O
0.616801 0.380503 0.245311 O
0.675559 0.985428 0.015620 O
0.244675 0.616442 0.380386 O
0.018902 0.678646 0.982262 O
0.380151 0.243908 0.617194 O
0.280769 0.326881 0.979833 O
0.874939 0.722203 0.476169 O
0.979891 0.284407 0.324120 O
0.472727 0.875534 0.721257 O
0.325491 0.982530 0.282893 O
0.721299 0.477267 0.875016 O
0.270889 0.517410 0.123369 O
0.016248 0.712448 0.668285 O
0.121240 0.269607 0.519642 O
0.668571 0.010484 0.712989 O
0.520219 0.122005 0.271247 O
0.715642 0.665870 0.016568 O
