Ca1 Fe4 S6 O24                          
   1.00000000000000     
     7.5690340000000003    0.2014490000000000    4.5744470000000002
     2.6779970000000000    7.0746529999999996    4.5853580000000003
     0.2939960000000000    0.2199380000000000    8.8438479999999995
   Ca   Fe   S    O 
     1     4     6    24
Direct
  0.3070369154914285  0.7110262069173774  0.5384632878296275
  0.6625761213966121  0.6333756628026790  0.6498598857980594
  0.1440544162934661  0.1550186314154131  0.1353515391914811
  0.8353676152751108  0.8551188395776383  0.8505546291593270
  0.3531779143555377  0.3493353319502143  0.3624422193879793
  0.9694908517845473  0.2396886431465489  0.5279383080934910
  0.4531981907610766  0.0456503965544860  0.7505706509945735
  0.5456103562192074  0.9601670280864361  0.2481042266379186
  0.7377475627176967  0.4651956645203648  0.0520715606730162
  0.2552781502117904  0.5277160493162497  0.9617542696861799
  0.0259294091224191  0.7533253399290250  0.4452810349935624
  0.4100401259314926  0.5910354719626690  0.7792214931528236
  0.9338067401603375  0.3262121137088924  0.0281094922640371
  0.7820775273576011  0.3626951561042669  0.6186932212080870
  0.0082106232754139  0.9522053834325851  0.3215895733896498
  0.5925694694974412  0.7669711146198044  0.4007771245604412
  0.3095551428056537  0.0175936841875565  0.9479439755550948
  0.6946295992697062  0.9612897182337999  0.0613395618173386
  0.2298778930636631  0.6257792534345974  0.3811256872427783
  0.0748581698437509  0.6783317515598014  0.9349838190412194
  0.3740626341428708  0.2402508847531145  0.6210296842553288
  0.9962180542903580  0.0311753738549859  0.6434953675638291
  0.6020386540461813  0.3927043039091818  0.2430171540723429
  0.9877626219191998  0.2806366416714639  0.3348623248559508
  0.4999862777858738  0.8972533689988026  0.6889650343540188
  0.3592156640533473  0.9818645699045896  0.2597399994086086
  0.6857381357051106  0.4980913247710440  0.9025813173503180
  0.2782018469828667  0.3469474192270573  0.9691296008965677
  0.8993903498553067  0.6946787658665493  0.4488064924938120
  0.1231799616558054  0.2712369824935673  0.5152890184685196
  0.6268057667465483  0.0367656633366887  0.7447482181472100
  0.5205206510301441  0.1087287951883253  0.2920068062811004
  0.7237978845665937  0.6474336982269496  0.0343980220426910
  0.2743862362460217  0.5057524768173899  0.1250032391622601
 -0.0109175184207198  0.7226417295076636  0.6441745972334852
 
             NaN             NaN             NaN
             NaN             NaN             NaN
             NaN             NaN             NaN
             NaN             NaN             NaN
             NaN             NaN             NaN
             NaN             NaN             NaN
             NaN             NaN             NaN
             NaN             NaN             NaN
             NaN             NaN             NaN
             NaN             NaN             NaN
             NaN             NaN             NaN
             NaN             NaN             NaN
             NaN             NaN             NaN
             NaN             NaN             NaN
             NaN             NaN             NaN
             NaN             NaN             NaN
             NaN             NaN             NaN
             NaN             NaN             NaN
             NaN             NaN             NaN
             NaN             NaN             NaN
             NaN             NaN             NaN
             NaN             NaN             NaN
             NaN             NaN             NaN
             NaN             NaN             NaN
             NaN             NaN             NaN
             NaN             NaN             NaN
             NaN             NaN             NaN
             NaN             NaN             NaN
             NaN             NaN             NaN
             NaN             NaN             NaN
             NaN             NaN             NaN
             NaN             NaN             NaN
             NaN             NaN             NaN
             NaN             NaN             NaN
             NaN             NaN             NaN
