Ca2 Fe2 O4                              
   1.00000000000000     
     5.5179074293446826   -0.0000100939074125   -0.0000421563981600
    -0.0000100514525720    5.5179199586363552    0.0000021871067017
    -0.0000144170321922   -0.0000025444346630    3.3722337846208590
   Ca   Fe   O 
     2     2     4
Direct
  0.5000056332462901  0.0000051497040568  0.4231499743741884
  0.0000051359874422  0.4999895383874781  0.5768446841200030
  0.4999985039370461  0.5000071570848867 -0.0000023246512193
 -0.0000010499817082 -0.0000042675261140 -0.0000002079542147
  0.7762321640928138  0.2762390605916578  0.1093724277481229
  0.7237608113342585  0.7762322650460416  0.8906059195150370
  0.2237661526763989  0.7237719912774996  0.1094070660358773
  0.2762326487074514  0.2237591054344863  0.8906224608121981
 
  0.00000000E+00  0.00000000E+00  0.00000000E+00
  0.00000000E+00  0.00000000E+00  0.00000000E+00
  0.00000000E+00  0.00000000E+00  0.00000000E+00
  0.00000000E+00  0.00000000E+00  0.00000000E+00
  0.00000000E+00  0.00000000E+00  0.00000000E+00
  0.00000000E+00  0.00000000E+00  0.00000000E+00
  0.00000000E+00  0.00000000E+00  0.00000000E+00
  0.00000000E+00  0.00000000E+00  0.00000000E+00
