Ca2 Cr4 S6 O24                          
   1.00000000000000     
     7.4386349999999997   -0.0711160000000000    4.5776110000000001
     2.3513829999999998    7.0618400000000001    4.5612290000000000
    -0.0498600000000000   -0.0835920000000000    9.3611000000000004
   Ca   Cr   S    O 
     2     4     6    24
Direct
  0.2412257132522991  0.8203851486265807  0.5755368720288654
  0.9778560192411221  1.0320399802074784 -0.0104632216355493
  0.6662582511318460  0.6056143256928843  0.6600602486456605
  0.1459579018681533  0.1395612360722216  0.1526170669582446
  0.8212257757613534  0.8456453446794602  0.8693252258368808
  0.3536705727901638  0.3732650686133448  0.3586685914746489
  0.9752954279930248  0.2391088437830046  0.5605136428004968
  0.4670885331191412  0.0137844017254443  0.7458244008067026
  0.5282980498136273  0.9856506331076234  0.2444343205011901
  0.7573442169007840  0.4259448409725126  0.0365223189516931
  0.2394208460396822  0.5549243239364027  0.9541162266715258
  0.0399787564468888  0.7550622984060393  0.4311929061526475
  0.4006913961921927  0.5652285310840630  0.7794569656657891
  0.8982597746879486  0.2556414076551289  0.1132237413936837
  0.7931791761581348  0.3852843934394278  0.5718741900109378
  0.0692931706772391  0.9020829901589428  0.2502827759738100
  0.5390056703825179  0.8418060259085447  0.4178660123400789
  0.2685673277118213  0.0623565367479924  0.8671359132566453
  0.7109313302588118  0.9447823405112808  0.1018126915933891
  0.2238291984618014  0.6074934678684828  0.4348557803605657
  0.0815035285845836  0.7300354397996225  0.9001777346598524
  0.4923273381177793  0.1539491080776954  0.5691152962347358
  0.9535636231214213  0.0689952035299315  0.7297932893504441
  0.5808679110518115  0.4679254635253025  0.1805050628316438
  1.0501061462141825  0.1726913240852329  0.4158300538679804
  0.5165736305037916  0.8261867643039854  0.7443600497447450
  0.3806307264456891 -0.0302861828826483  0.2220812275877385
  0.7438526719713539  0.3735589167828650  0.9178168496262908
  0.1916780747175167  0.3894846614736014  0.0146359933370265
  0.9000199532185512  0.6842841096749048  0.4672585025662493
  0.1147775060524040  0.2961223316164344  0.5492235119352727
  0.5836362713516630  1.0023223806527801  0.8247788688346261
  0.4767212708984723  0.1726346551410378  0.2420461084670567
  0.8294268193678194  0.5854529487319030  0.9333335227653184
  0.2690011591594592  0.5700227705967401  0.0825678720920850
 -0.0208990129276846  0.8367464154314859  0.5628244857751870
 
             NaN             NaN             NaN
             NaN             NaN             NaN
             NaN             NaN             NaN
             NaN             NaN             NaN
             NaN             NaN             NaN
             NaN             NaN             NaN
             NaN             NaN             NaN
             NaN             NaN             NaN
             NaN             NaN             NaN
             NaN             NaN             NaN
             NaN             NaN             NaN
             NaN             NaN             NaN
             NaN             NaN             NaN
             NaN             NaN             NaN
             NaN             NaN             NaN
             NaN             NaN             NaN
             NaN             NaN             NaN
             NaN             NaN             NaN
             NaN             NaN             NaN
             NaN             NaN             NaN
             NaN             NaN             NaN
             NaN             NaN             NaN
             NaN             NaN             NaN
             NaN             NaN             NaN
             NaN             NaN             NaN
             NaN             NaN             NaN
             NaN             NaN             NaN
             NaN             NaN             NaN
             NaN             NaN             NaN
             NaN             NaN             NaN
             NaN             NaN             NaN
             NaN             NaN             NaN
             NaN             NaN             NaN
             NaN             NaN             NaN
             NaN             NaN             NaN
             NaN             NaN             NaN
