Ca2 Cr4 S6 O24
1.0
7.438635 -0.071116 4.577611
2.351383 7.061840 4.561229
-0.049860 -0.083592 9.361100
Ca Cr S O
2 4 6 24
direct
0.348946 0.742032 0.554675 Ca
0.999453 0.991892 1.011070 Ca
0.652429 0.630949 0.658580 Cr
0.137710 0.155307 0.150321 Cr
0.845290 0.842157 0.850419 Cr
0.345223 0.356037 0.356026 Cr
0.949097 0.247054 0.563985 S
0.460402 0.028763 0.738595 S
0.525622 0.969501 0.237633 S
0.750031 0.434726 0.048696 S
0.242212 0.561761 0.946780 S
0.057275 0.750311 0.442470 S
0.401400 0.571369 0.772832 O
0.904840 0.254571 0.088523 O
0.775209 0.406092 0.578645 O
0.070995 0.909011 0.267790 O
0.526390 0.784845 0.377565 O
0.274988 0.054597 0.881937 O
0.715941 0.962688 0.106811 O
0.229314 0.591185 0.415025 O
0.085808 0.744677 0.906857 O
0.468091 0.202452 0.588186 O
0.923395 0.083958 0.736392 O
0.583722 0.430367 0.212123 O
0.997326 0.191039 0.421427 O
0.482702 0.883329 0.683859 O
0.401097 0.024037 0.149051 O
0.718680 0.442589 0.907158 O
0.181474 0.407101 1.001374 O
0.890372 0.706050 0.497294 O
0.104892 0.288240 0.542287 O
0.608269 0.959704 0.805863 O
0.456234 0.105249 0.322884 O
0.809667 0.589693 -0.000474 O
0.283711 0.559218 0.078201 O
0.046718 0.803279 0.572772 O
