Ca1 Fe4 S6 O24                          
   1.00000000000000     
     7.5783899999999997    0.1828480000000000    4.5485530000000001
     2.6593680000000002    7.0924800000000001    4.5664860000000003
     0.2632410000000000    0.2063500000000000    8.8398529999999997
   Ca   Fe   S    O 
     1     4     6    24
Direct
  0.2691418688959209  0.7657360859397668  0.5557266043626334
  0.6649646048400039  0.6315757910515273  0.6454972229749598
  0.1432260700493871  0.1519671881817514  0.1338667843736458
  0.8287435037895357  0.8504972142287508  0.8568979440163640
  0.3559467881810318  0.3508341270007147  0.3605469398546144
  0.9702822710972916  0.2435327057764010  0.5229501006691785
  0.4511459532512879  0.0390800920630891  0.7512854656304858
  0.5468160317835805  0.9636986403228842  0.2461280555976150
  0.7405860911840677  0.4609114327003769  0.0524869555694463
  0.2582506006060435  0.5269999022382810  0.9567758494058271
  0.0302027364830848  0.7457060240239360  0.4515612594901716
  0.4184243595952893  0.5782024632176154  0.7760052282804792
  0.9324372196691739  0.3141672969143069  0.0309646994051495
  0.7870491207124376  0.3672553250235545  0.6151365436735728
  0.0178444485507282  0.9443728900346912  0.3291260981899521
  0.5846113578470461  0.7730473944826285  0.4025055731117715
  0.3094284266869439  0.0127334875673335  0.9480171089931076
  0.6978743693680667  0.9600998753454163  0.0624206393287354
  0.2319842890675455  0.6186591147832621  0.3920432781083216
  0.0850455944590814  0.6887223097022463  0.9188601723519562
  0.3761917856261142  0.2321958885995968  0.6213724527539959
  0.9921307311097530  0.0366725572910569  0.6420388913422265
  0.6025153737570077  0.3917710221759912  0.2400378415775177
  0.9828444401097868  0.2825000001696205  0.3335785103499671
  0.4924800661013110  0.8915722935071128  0.6913300806051668
  0.3594494200787838  0.9938772880218167  0.2527870989463619
  0.6869971187221139  0.5052074193183029  0.8993087638777314
  0.2655110912393413  0.3517100460239600  0.9701505462939224
  0.9015804744647814  0.6943344602528712  0.4486050495846256
  0.1285807624285752  0.2711518517872302  0.5065955203099617
  0.6281731146061361  0.0242993799818798  0.7457251432368206
  0.5260276866655582  0.1109896382242314  0.2891392415802648
  0.7370847545229907  0.6341385165668708  0.0427865687556360
  0.2762097753966004  0.5068979753058959  0.1200796432360362
  0.9860339745423536  0.7182548089848639  0.6509602554959648
 
             NaN             NaN             NaN
             NaN             NaN             NaN
             NaN             NaN             NaN
             NaN             NaN             NaN
             NaN             NaN             NaN
             NaN             NaN             NaN
             NaN             NaN             NaN
             NaN             NaN             NaN
             NaN             NaN             NaN
             NaN             NaN             NaN
             NaN             NaN             NaN
             NaN             NaN             NaN
             NaN             NaN             NaN
             NaN             NaN             NaN
             NaN             NaN             NaN
             NaN             NaN             NaN
             NaN             NaN             NaN
             NaN             NaN             NaN
             NaN             NaN             NaN
             NaN             NaN             NaN
             NaN             NaN             NaN
             NaN             NaN             NaN
             NaN             NaN             NaN
             NaN             NaN             NaN
             NaN             NaN             NaN
             NaN             NaN             NaN
             NaN             NaN             NaN
             NaN             NaN             NaN
             NaN             NaN             NaN
             NaN             NaN             NaN
             NaN             NaN             NaN
             NaN             NaN             NaN
             NaN             NaN             NaN
             NaN             NaN             NaN
             NaN             NaN             NaN
