Ca1 Mn4 P6 O24                          
   1.00000000000000     
     2.8057490000000000    6.9719550000000003    4.0780870000000000
     0.8262160000000000    0.4566330000000000    8.4806150000000002
     7.5384529999999996    0.2958250000000000    3.9616920000000002
   Ca   Mn   P    O 
     1     4     6    24
Direct
  0.3192110819078786  0.7109136746046330  0.5111097203364842
  0.6414741287886779  0.6404327381992523  0.6445816255879745
  0.1389198612182554  0.1584649184371041  0.1375371794446625
  0.8482436446417129  0.8489010391588836  0.8545096199752180
  0.3590707234672371  0.3470568253846914  0.3662249586708280
  0.2488289110286175  0.5243479470213512  0.9686156696704675
  0.0109608421095632  0.7513088465858024  0.4678487322931728
  0.9710505336311023  0.2479097904530284  0.5216457203400603
  0.4537269762076774  0.0296532624699499  0.7569203650452834
  0.5508236323098509  0.9760405558521675  0.2358408262954989
  0.7398728448822058  0.4715728808499663  0.0472063833373306
  0.5975435028233478  0.7610274698530518  0.3957506703889725
  0.2988926770783583  0.0104792823120243  0.9664829876025017
  0.4120928356107553  0.5835887321036772  0.7670765017884212
  0.9423498763204167  0.3000535070976817  0.0287307658544551
  0.7720128236266918  0.3909496876919986  0.6117059388157936
  0.0222380553533260  0.9579192639225866  0.3374447161666014
  0.9908772255516689  0.0272861460777170  0.6506511219563113
  0.5826234057381443  0.4136096042332648  0.2490808793460404
  0.7064931499976398  0.9881836974220416  0.0301203533300542
  0.2186892584804017  0.6020828189960471  0.3949511280375560
  0.0555263291653519  0.7009811537317355  0.9592609817281960
  0.3885463740230605  0.2434152502779533  0.6082774155468801
  0.2575425343974249  0.3454062776917445  0.9577956321365544
  0.8537711977727621  0.7218500694908492  0.4695403918683241
  0.9856949699037391  0.2988364490565246  0.3114297428492095
  0.4754940138051331  0.8799103464570766  0.6940564414104042
  0.3463202324384274  0.0085941919924657  0.2520319516767438
  0.6895043060241598  0.5194610338438562  0.8759704238668043
  0.3005086286532759  0.4782217525734309  0.1345698188021153
 -0.0054545350198550  0.7020120601376416  0.6804426408310230
  0.1411457353078808  0.2711326133698490  0.5118076556492868
  0.6543807734896203  0.9997512132064553  0.7421965052886893
  0.5359092988814352  0.1201977998901355  0.2981892603170858
  0.7354367233628631  0.6570178349092167  0.0421109528046666
 
             NaN             NaN             NaN
             NaN             NaN             NaN
             NaN             NaN             NaN
             NaN             NaN             NaN
             NaN             NaN             NaN
             NaN             NaN             NaN
             NaN             NaN             NaN
             NaN             NaN             NaN
             NaN             NaN             NaN
             NaN             NaN             NaN
             NaN             NaN             NaN
             NaN             NaN             NaN
             NaN             NaN             NaN
             NaN             NaN             NaN
             NaN             NaN             NaN
             NaN             NaN             NaN
             NaN             NaN             NaN
             NaN             NaN             NaN
             NaN             NaN             NaN
             NaN             NaN             NaN
             NaN             NaN             NaN
             NaN             NaN             NaN
             NaN             NaN             NaN
             NaN             NaN             NaN
             NaN             NaN             NaN
             NaN             NaN             NaN
             NaN             NaN             NaN
             NaN             NaN             NaN
             NaN             NaN             NaN
             NaN             NaN             NaN
             NaN             NaN             NaN
             NaN             NaN             NaN
             NaN             NaN             NaN
             NaN             NaN             NaN
             NaN             NaN             NaN
