Ca1 Mn4 P6 O24
1.0
2.805749 6.971955 4.078087
0.826216 0.456633 8.480615
7.538453 0.295825 3.961692
Ca Mn P O
1 4 6 24
direct
0.373779 0.672967 0.532595 Ca
0.642482 0.648827 0.641144 Mn
0.138900 0.152415 0.139986 Mn
0.848877 0.844674 0.856795 Mn
0.357074 0.346324 0.357183 Mn
0.251700 0.525373 0.957888 P
0.023946 0.747686 0.471260 P
0.967514 0.250951 0.522190 P
0.452952 0.028604 0.755486 P
0.544553 0.971391 0.236691 P
0.742327 0.467151 0.043493 P
0.597409 0.762448 0.396227 O
0.294250 0.018335 0.959595 O
0.412799 0.583036 0.755606 O
0.938035 0.294353 0.036851 O
0.785900 0.411367 0.594380 O
0.041018 0.946549 0.328025 O
0.961201 0.045899 0.669801 O
0.578085 0.417908 0.240353 O
0.702607 0.979092 0.034019 O
0.205332 0.584022 0.403630 O
0.058596 0.701204 0.954348 O
0.397442 0.236736 0.599410 O
0.250486 0.347050 0.961457 O
0.845321 0.742269 0.489676 O
0.977602 0.289409 0.319513 O
0.466878 0.876567 0.700497 O
0.344366 1.002399 0.251139 O
0.694763 0.514516 0.873084 O
0.299775 0.482341 0.124897 O
0.017081 0.708442 0.674269 O
0.148673 0.253176 0.504456 O
0.651075 -0.010118 0.748352 O
0.528955 0.122711 0.291690 O
0.745956 0.646441 0.036639 O
