Mn8 S8 O24                              
   1.00000000000000     
     8.0920673154257461   -0.0000000772543062    1.4775043882017613
    -0.0000001229973796   12.1913627793645958    0.0000000055790496
     0.0087487124437968    0.0000000198206167    5.4175216790972005
   Mn   S    O 
     8     8    24
Direct
  0.8451365780037392  0.7548984520836299  0.1182671782408349
  0.6548637938994162  0.2548982013481762  0.8817351166375431
  0.1548637676552218  0.2451017956787993  0.8817351793681922
  0.3451365487808715  0.7451015501176101  0.1182672513429281
  0.3829088136351544  0.0778845019944399  0.3301886197415271
  0.1170905294811533  0.5778813457007033  0.6698074429616341
  0.6170905275430343  0.9221186538241639  0.6698074501628497
  0.8829088129657023  0.4221154988229756  0.3301886286410252
  0.2568609480552553  0.4784879343002615  0.0848651759931585
  0.2431383617240570  0.9784878681301947  0.9151332201662825
  0.7431383639327152  0.5215121243493783  0.9151332054545165
  0.7568609449619927  0.0215120734833931  0.0848651619453094
  0.4854232418695688  0.3254775219620925  0.4769111704341995
  0.0145832913677282  0.8254747617232994  0.5230929896193857
  0.5145832891023119  0.6745252425531660  0.5230929864713545
  0.9854232367975300  0.1745224723237868  0.4769111737470979
  0.7388492876729984  0.4049204644658246  0.0223833564643883
  0.7611468566222115  0.9049205635879716  0.9776244429097787
  0.2611468349210355  0.5950794421441756  0.9776244487161492
  0.2388492651862819  0.0950795310350827  0.0223833643864566
  0.6624908513405998  0.3432297591434263  0.5220027683391137
  0.8375216980403692  0.8432472011512147  0.4779906257757958
  0.3375216883604111  0.6567528005411916  0.4779906405963814
  0.1624908438780466  0.1567702394780923  0.5220027814056820
  0.9201581402277981  0.2415117315875506  0.7158935077076620
  0.5798410361403583  0.7415167585230762  0.2841079488092362
  0.0798410371452150  0.7584832418177214  0.2841079588371116
  0.4201581436216415  0.2584882674769631  0.7158935127746702
  0.6573425184577886  0.0785306705809532  0.9047082740412975
  0.8426565143528251  0.5785321579078726  0.0952904019203018
  0.3426565350827318  0.9214678446209703  0.0952904261621796
  0.1573425369183852  0.4214693241315004  0.9047082928537407
  0.6325338296843412  0.0184779105407458  0.3319342460632697
  0.8674636286215147  0.5184750406778633  0.6680630014142110
  0.3674636251121299  0.9815249580398415  0.6680630105899965
  0.1325338236681191  0.4815220919912591  0.3319342598736341
  0.0003619794652820  0.7406114270521442  0.7372646512653205
  0.4996281577173178  0.2406174644733170  0.2627357399160317
  0.9996281498037902  0.2593825332592985  0.2627357376337969
  0.5003619681833626  0.7593885773758586  0.7372646506159555
 
  0.00000000E+00  0.00000000E+00  0.00000000E+00
  0.00000000E+00  0.00000000E+00  0.00000000E+00
  0.00000000E+00  0.00000000E+00  0.00000000E+00
  0.00000000E+00  0.00000000E+00  0.00000000E+00
  0.00000000E+00  0.00000000E+00  0.00000000E+00
  0.00000000E+00  0.00000000E+00  0.00000000E+00
  0.00000000E+00  0.00000000E+00  0.00000000E+00
  0.00000000E+00  0.00000000E+00  0.00000000E+00
  0.00000000E+00  0.00000000E+00  0.00000000E+00
  0.00000000E+00  0.00000000E+00  0.00000000E+00
  0.00000000E+00  0.00000000E+00  0.00000000E+00
  0.00000000E+00  0.00000000E+00  0.00000000E+00
  0.00000000E+00  0.00000000E+00  0.00000000E+00
  0.00000000E+00  0.00000000E+00  0.00000000E+00
  0.00000000E+00  0.00000000E+00  0.00000000E+00
  0.00000000E+00  0.00000000E+00  0.00000000E+00
  0.00000000E+00  0.00000000E+00  0.00000000E+00
  0.00000000E+00  0.00000000E+00  0.00000000E+00
  0.00000000E+00  0.00000000E+00  0.00000000E+00
  0.00000000E+00  0.00000000E+00  0.00000000E+00
  0.00000000E+00  0.00000000E+00  0.00000000E+00
  0.00000000E+00  0.00000000E+00  0.00000000E+00
  0.00000000E+00  0.00000000E+00  0.00000000E+00
  0.00000000E+00  0.00000000E+00  0.00000000E+00
  0.00000000E+00  0.00000000E+00  0.00000000E+00
  0.00000000E+00  0.00000000E+00  0.00000000E+00
  0.00000000E+00  0.00000000E+00  0.00000000E+00
  0.00000000E+00  0.00000000E+00  0.00000000E+00
  0.00000000E+00  0.00000000E+00  0.00000000E+00
  0.00000000E+00  0.00000000E+00  0.00000000E+00
  0.00000000E+00  0.00000000E+00  0.00000000E+00
  0.00000000E+00  0.00000000E+00  0.00000000E+00
  0.00000000E+00  0.00000000E+00  0.00000000E+00
  0.00000000E+00  0.00000000E+00  0.00000000E+00
  0.00000000E+00  0.00000000E+00  0.00000000E+00
  0.00000000E+00  0.00000000E+00  0.00000000E+00
  0.00000000E+00  0.00000000E+00  0.00000000E+00
  0.00000000E+00  0.00000000E+00  0.00000000E+00
  0.00000000E+00  0.00000000E+00  0.00000000E+00
  0.00000000E+00  0.00000000E+00  0.00000000E+00
