Ca2 Mn4 S6 O24                          
   1.00000000000000     
     7.7410649999999999    0.1130160000000000    4.4879819999999997
     2.6517379999999999    7.2732599999999996    4.4945870000000001
     0.1316500000000000    0.1020500000000000    8.9084090000000007
   Ca   Mn   S    O 
     2     4     6    24
Direct
  0.4561739326669275  0.5680820755697448  0.4841176863896648
  0.9914397787314901  1.0151569069010042 -0.0141520646684846
  0.6444696475399687  0.6449662563394370  0.6666802033206186
  0.1509262983018394  0.1510490700152666  0.1483819542225858
  0.8453034983748302  0.8531815183786563  0.8378159716037116
  0.3453604764431731  0.3515447773182369  0.3518051091474377
  0.9450815654127114  0.2569921913038793  0.5489892761243799
  0.4359497537845802  0.0494904669990240  0.7501669026553940
  0.5493675002355503  0.9512930916251447  0.2449568640064161
  0.7456440747333440  0.4473887635650764  0.0562029352429309
  0.2433439079050079  0.5586485040838604  0.9519256430815719
  0.0434375331365736  0.7568351193453614  0.4449217370307608
  0.4024295626560268  0.5669676857817458  0.7728216055174143
  0.8902232773404649  0.2614202228595285  0.0952990811039258
  0.7711323743869979  0.4192378335125180  0.5506125729246012
  0.0627231563184021  0.9038292884459559  0.2602625724419620
  0.5766814357105973  0.7839994292176473  0.4103197214864079
  0.2522919239986416  0.0885915588789542  0.8994931824170213
  0.7261810724099177  0.9305690818278751  0.0877753140635205
  0.2160822346130235  0.5924066156475903  0.4292921579705993
  0.0900383409700684  0.7393060629416490  0.9205984519070248
  0.4390070845107201  0.2226419275854523  0.5880851234747716
  0.9095794698990948  0.1045675923881817  0.7304673665394523
  0.5839117663925353  0.4575319935486952  0.2298082208006118
  1.0013070890555182  0.1971596820824267  0.3983947525700418
  0.4528479343092076  0.9044747826228537  0.7050908696019228
  0.4027412366032980  0.9550331170964235  0.2110158906471916
  0.6928156026006516  0.4641809269170096  0.9159855659605799
  0.1904826987883904  0.4069600743963822  0.9994190611477785
  0.8834660085228914  0.7118262812426279  0.5037389467339768
  0.0909232996771920  0.2997301605013887  0.5335853239509423
  0.5832677867341954  0.9893521505544325  0.8166605491612562
  0.5004308444331036  0.1186156584185695  0.2742909158766522
  0.8163934962438214  0.5919725337471612 -0.0084780405073978
  0.2933071040410019  0.5354878994465945  0.0962954693618171
  0.0325512572931595  0.8139241264474367  0.5787157786986646
 
             NaN             NaN             NaN
             NaN             NaN             NaN
             NaN             NaN             NaN
             NaN             NaN             NaN
             NaN             NaN             NaN
             NaN             NaN             NaN
             NaN             NaN             NaN
             NaN             NaN             NaN
             NaN             NaN             NaN
             NaN             NaN             NaN
             NaN             NaN             NaN
             NaN             NaN             NaN
             NaN             NaN             NaN
             NaN             NaN             NaN
             NaN             NaN             NaN
             NaN             NaN             NaN
             NaN             NaN             NaN
             NaN             NaN             NaN
             NaN             NaN             NaN
             NaN             NaN             NaN
             NaN             NaN             NaN
             NaN             NaN             NaN
             NaN             NaN             NaN
             NaN             NaN             NaN
             NaN             NaN             NaN
             NaN             NaN             NaN
             NaN             NaN             NaN
             NaN             NaN             NaN
             NaN             NaN             NaN
             NaN             NaN             NaN
             NaN             NaN             NaN
             NaN             NaN             NaN
             NaN             NaN             NaN
             NaN             NaN             NaN
             NaN             NaN             NaN
             NaN             NaN             NaN
