Ca2 Mn4 S6 O24
1.0
7.741065 0.113016 4.487982
2.651738 7.273260 4.494587
0.131650 0.102050 8.908409
Ca Mn S O
2 4 6 24
direct
0.435034 0.590534 0.517711 Ca
0.992112 0.997616 1.002748 Ca
0.649771 0.643786 0.647946 Mn
0.146947 0.152939 0.143958 Mn
0.839864 0.844539 0.848382 Mn
0.351330 0.350992 0.347826 Mn
0.951764 0.248243 0.548161 S
0.438939 0.044963 0.748800 S
0.551510 0.949835 0.244925 S
0.747885 0.444740 0.049872 S
0.247932 0.551648 0.946265 S
0.048021 0.748907 0.446879 S
0.401791 0.569492 0.765055 O
0.900270 0.261957 0.072190 O
0.772751 0.402722 0.563769 O
0.067702 0.902532 0.265698 O
0.568762 0.771283 0.401792 O
0.258573 0.068894 0.902781 O
0.728918 0.928241 0.088050 O
0.225545 0.592360 0.432785 O
0.092445 0.732968 0.924045 O
0.430103 0.222446 0.593997 O
0.934987 0.092158 0.729240 O
0.591728 0.433094 0.227213 O
0.993344 0.186323 0.403983 O
0.467411 0.903117 0.692286 O
0.400173 0.988999 0.195380 O
0.694264 0.481205 0.901745 O
0.192529 0.404713 0.986598 O
0.898274 0.697726 0.486741 O
0.099063 0.302220 0.510438 O
0.585827 -0.006913 0.810324 O
0.520127 0.096674 0.295468 O
0.810338 0.586905 0.009063 O
0.302247 0.518164 0.092067 O
0.011658 0.807881 0.591971 O
