Ca2 Cr4 S6 O24                          
   1.00000000000000     
     7.4315439999999997   -0.0859760000000000    4.5799300000000001
     2.3445619999999998    7.0580689999999997    4.5591249999999999
    -0.0599850000000000   -0.0991520000000000    9.3874010000000006
   Ca   Cr   S    O 
     2     4     6    24
Direct
  0.2500478362162243  0.8527245033792836  0.5889481812748676
  0.9719115437148803  1.0316181713024462 -0.0045760728320580
  0.6573339129128667  0.6142365726380690  0.6637176138573350
  0.1412737732045043  0.1406927445400636  0.1563736803546579
  0.8277561433713898  0.8383843319144569  0.8628088131697355
  0.3585866691454759  0.3691740113420195  0.3531921344688436
  0.9715871533290495  0.2440432236424278  0.5615622991701853
  0.4532026469616119  0.0230934555468646  0.7424360442840805
  0.5355901865349899  0.9744318265662132  0.2397538096809411
  0.7588657630973074  0.4233526620337981  0.0339825909649519
  0.2390546791518354  0.5527452795945835  0.9554013144917602
  0.0500287392894018  0.7512809400643023  0.4372103183277547
  0.4000677826614522  0.5627489349590847  0.7813217686855051
  0.8948343259799894  0.2543993852877009  0.1167020874899400
  0.7917476741084132  0.3918867470522923  0.5777947441610792
  0.0632206794555100  0.9040816694595727  0.2601166045239807
  0.5590170542219586  0.8138671482857546  0.4008549249367810
  0.2598650513161372  0.0728012243815455  0.8706011427997207
  0.7103679947912149  0.9486821617588231  0.0865431515603107
  0.2301134281125960  0.6003262712640597  0.4217989208538909
  0.0814520918195818  0.7313683837523055  0.9052364777643201
  0.4836549705356822  0.1754718558958678  0.5752265094838748
  0.9513774168605773  0.0720339399079169  0.7297279901123620
  0.5808540696816700  0.4726409646051167  0.1729159646900644
  0.0385564645422673  0.1828274791817057  0.4159736761373690
  0.4743719919334840  0.8568203165850613  0.7159203358215335
  0.3777006538962810 -0.0238999147420699  0.2194903248367038
  0.7454265086507139  0.3657478893697443  0.9192889080824658
  0.1873947172319831  0.3907135594640588  0.0134831559948230
  0.8934234785516226  0.6912739161591810  0.4922694512374590
  0.1194949070895484  0.2920506348136929  0.5476897036709256
  0.5853616224887390  0.9690453978151490  0.8245533524552743
  0.4906267763680660  0.1495548080110005  0.2586513122262341
  0.8362581084098604  0.5796167960297816  0.9251658467575267
  0.2727846905637273  0.5619776928636631  0.0843696629457320
  0.0180214614971916  0.8238636420904516  0.5646718226999312
 
             NaN             NaN             NaN
             NaN             NaN             NaN
             NaN             NaN             NaN
             NaN             NaN             NaN
             NaN             NaN             NaN
             NaN             NaN             NaN
             NaN             NaN             NaN
             NaN             NaN             NaN
             NaN             NaN             NaN
             NaN             NaN             NaN
             NaN             NaN             NaN
             NaN             NaN             NaN
             NaN             NaN             NaN
             NaN             NaN             NaN
             NaN             NaN             NaN
             NaN             NaN             NaN
             NaN             NaN             NaN
             NaN             NaN             NaN
             NaN             NaN             NaN
             NaN             NaN             NaN
             NaN             NaN             NaN
             NaN             NaN             NaN
             NaN             NaN             NaN
             NaN             NaN             NaN
             NaN             NaN             NaN
             NaN             NaN             NaN
             NaN             NaN             NaN
             NaN             NaN             NaN
             NaN             NaN             NaN
             NaN             NaN             NaN
             NaN             NaN             NaN
             NaN             NaN             NaN
             NaN             NaN             NaN
             NaN             NaN             NaN
             NaN             NaN             NaN
             NaN             NaN             NaN
