Ca2 Cr4 S6 O24
1.0
7.431544 -0.085976 4.579930
2.344562 7.058069 4.559125
-0.059985 -0.099152 9.387401
Ca Cr S O
2 4 6 24
direct
0.318820 0.790845 0.566703 Ca
0.999744 0.990358 1.014384 Ca
0.653103 0.628896 0.660215 Cr
0.137081 0.156501 0.150278 Cr
0.843085 0.842317 0.851592 Cr
0.345943 0.355973 0.358352 Cr
0.951312 0.246596 0.565767 S
0.459914 0.028286 0.736822 S
0.524384 0.970766 0.235662 S
0.750133 0.434026 0.047422 S
0.241276 0.562761 0.947988 S
0.057418 0.750969 0.442934 S
0.400879 0.571466 0.774929 O
0.904353 0.254228 0.089427 O
0.778719 0.405446 0.578143 O
0.070205 0.910342 0.269263 O
0.522580 0.786421 0.374492 O
0.275114 0.055082 0.880455 O
0.715660 0.964264 0.107850 O
0.228080 0.592527 0.414485 O
0.085667 0.746208 0.905296 O
0.469257 0.200083 0.586052 O
0.923825 0.082785 0.737293 O
0.582801 0.431454 0.208433 O
1.005017 0.188804 0.422528 O
0.478889 0.881766 0.684370 O
0.402883 0.027522 0.143117 O
0.721736 0.439316 0.905538 O
0.179566 0.408456 1.003509 O
0.888609 0.708518 0.499187 O
0.107273 0.285223 0.548186 O
0.609313 0.956740 0.802756 O
0.451378 0.105316 0.323998 O
0.810346 0.589311 -0.002952 O
0.280723 0.562971 0.078902 O
0.048344 0.803974 0.572500 O
