V8 P4                                   
   1.00000000000000     
     6.1487995742728820    0.0000000082896408   -0.0000172188017342
     0.0000000049052929    3.2727334020899796    0.0000000165436136
    -0.0000201467254420    0.0000000373244520    7.5423561466771005
   V    P 
     8     4
Direct
  0.3595379822725333  0.2500000034468179  0.4419519698797461
  0.8595323576281683  0.2499999843649816  0.0580478480790166
  0.6405285054408311  0.7499999930780757  0.5580569356405137
  0.1405308884437937  0.7500000144477931  0.9419442138313074
  0.4578925665368662  0.2500000081059090  0.8333967395599743
  0.9578943492518466  0.2499999998491632  0.6666118641616505
  0.5420623759848608  0.7499999951025572  0.1666234965455280
  0.0420685202737879  0.7500000004415760  0.3333669300483851
  0.7479759356903198  0.2499999980599250  0.3571692184673153
  0.2479752663874664  0.2500000036432366  0.1428269333679825
  0.2520018721503652  0.7499999962653320  0.6427998418876155
  0.7519993799391609  0.7500000031946255  0.8572040085309720
 
  0.00000000E+00  0.00000000E+00  0.00000000E+00
  0.00000000E+00  0.00000000E+00  0.00000000E+00
  0.00000000E+00  0.00000000E+00  0.00000000E+00
  0.00000000E+00  0.00000000E+00  0.00000000E+00
  0.00000000E+00  0.00000000E+00  0.00000000E+00
  0.00000000E+00  0.00000000E+00  0.00000000E+00
  0.00000000E+00  0.00000000E+00  0.00000000E+00
  0.00000000E+00  0.00000000E+00  0.00000000E+00
  0.00000000E+00  0.00000000E+00  0.00000000E+00
  0.00000000E+00  0.00000000E+00  0.00000000E+00
  0.00000000E+00  0.00000000E+00  0.00000000E+00
  0.00000000E+00  0.00000000E+00  0.00000000E+00
