Ca12 V8 Si12 O48                        
   1.00000000000000     
     6.0119737341774728    6.0447926494518756    6.0448322814297306
     6.0453079819606099   -6.0559748681240197   -6.0661858922150689
    -6.0234791117134998    6.0430070016443445   -6.0287619805183823
   Ca   V    Si   O 
    12     8    12    48
Direct
  0.7497663020465595  0.6253730004623392  0.3740056261839086
  0.2485483614578001  0.8749549555719724  0.1248514999108821
  0.1253184958509266  0.7504923048724024  0.3751696959912465
  0.3760387849575437  0.2496608780027074  0.1251839872332425
  0.3750214378822676  0.6252221181307789  0.2503740211525383
  0.1256979574294590  0.8740854818702601  0.7496159992048277
  0.2502222270410286  0.3746272904309720  0.6259942097339888
  0.7514481010206140  0.1250369995432052  0.8751450714013629
  0.8747004496260615  0.2495336155352348  0.6248448884745841
  0.6239622542204160  0.7503363717061760  0.8748043302496242
  0.6249435661517282  0.3747737622012934  0.7496016950878754
  0.8742941353636269  0.1259240121990999  0.2503756441473186
  0.9999876431800345  0.9999991621126156  0.4999941097399514
  0.4999869166727891  0.4999969022078403  0.4999894574260964
  0.9999787226666257  0.5000001397516698  0.0000039211519507
  0.4999915822356229  0.9999921555917766  0.0000014288914372
  0.9999856953147201  0.5000077823947606  0.4999961155208226
  0.4999998122151936  0.9999993662859339  0.5000043553546760
  0.4999884531569023  0.4999956089537960  0.0000012113410861
  0.9999998043498621  0.0000027120181088  0.0000076190818845
  0.7489889505216212  0.3741129960561693  0.1244713802348087
  0.2486263585140875  0.1246755831485302  0.3737813537155432
  0.3758217691913615  0.7520538254159703  0.6263234578782573
  0.1253506735941912  0.2516298435781650  0.8765206740364064
  0.6266616260058413  0.8745676480937803  0.2514432784809983
  0.8745032847847085  0.6229719281429098  0.7476275295282235
  0.2510422058344659  0.6259013830755862  0.8755545980295381
  0.7513566145576931  0.8753240973820553  0.6262088611189256
  0.6241727721615931  0.2479354177638768  0.3736655288774458
  0.8746449621088672  0.7483719453900619  0.1234717856975251
  0.3733383427187036  0.1254197434757884  0.7485548759180460
  0.1254934335743343  0.3770206447966089  0.2523794184208441
  0.3918815153896702  0.3047395706052995  0.5070169451176909
  0.1059256495955694  0.1162866912029159  0.4114982592410499
  0.7009905873541271  0.1942766367760242  0.0865680414997243
  0.7966106962921344  0.3840328695799684  0.9915397673290656
  0.0892539578269620  0.2077411413632291  0.6984728490084180
  0.9927366034825766  0.2992042340324375  0.8872009517243029
  0.5104704510248368  0.8955809476085008  0.8066646563522326
  0.4108870342734079  0.6097592844653335  0.6187658697778744
  0.8811994887624550  0.4883777135502569  0.7912284919885693
  0.6939724575838824  0.5870394310486020  0.7013707502393842
  0.6184859948544528  0.9106150270289746  0.1090210404005489
  0.8071569922714374  0.0082875385851153  0.3949632751001175
  0.6081037400386862  0.6952526396040284  0.4929661978841793
  0.8940593207607677  0.8837068778633181  0.5884934057792037
  0.2990596381444632  0.8057588340376967  0.9134608443761962
  0.2034377820843360  0.6159960475173918  0.0084904413017455
  0.9107345488558920  0.7922624413193091  0.3015192481351434
  0.0072605387604128  0.7007934584568574  0.1127979198190374
  0.4895283912488182  0.1044016265581931  0.1933160191486820
  0.5891001318016720  0.3902287524427948  0.3812266415756440
  0.1187844976867964  0.5116103407145403  0.2087817128185847
  0.3060403338455302  0.4129721758626914  0.2986311933935255
  0.3815047370359039  0.0893622488641910  0.8909778611774257
  0.1928546290216460  0.9917034663107955  0.6050324968628331
  0.3868088219672856  0.7984044990348949  0.4927149314173320
  0.1974322601826941  0.7094047147090450  0.5902549684531522
  0.1144028403578545  0.1085243776222455  0.9134275861685524
  0.3062566335155381  0.3935904651509077  0.0103773026966891
  0.8916165205722280  0.5060798060659266  0.3045860081902063
  0.6073068259299177  0.4127330761257895  0.1147067106742270
  0.2028443326630196  0.0887248925619062  0.1938751954275730
  0.2912676665262239  0.9901480672544238  0.3812984448700973
  0.5889244549616350  0.6961881336559728  0.2075000173877015
  0.4930514320500237  0.8857087467122398  0.2985065125912882
  0.0090238576842978  0.8012978426865800  0.8901789305874175
  0.9116326585498058  0.6144283853502941  0.6043994560151091
  0.6131809034867857  0.2015812587943913  0.5072753280424465
  0.8025653289275141  0.2906000692752784  0.4097580677792152
  0.8856032653579504  0.8914799984773651  0.0865638568657658
  0.6937513643818747  0.6064121596948411  0.9896153439077935
  0.1084122097117444  0.4939480425940133  0.6954562201223524
  0.3927148656399098  0.5872583817638883  0.8852976587925525
  0.7971586378834132  0.9112875686204518  0.8061214460296000
  0.7087279352078610  0.0098614504844790  0.6186854642729855
  0.4110700723353915  0.3037988638284759  0.7925064744388095
  0.5069688684870570  0.1143083192891368  0.7015097039264617
  0.9909865549009211  0.1986938903336792  0.1098112214383278
  0.0883702743153805  0.3855473183528488  0.3956006406373120
 
  0.00000000E+00  0.00000000E+00  0.00000000E+00
  0.00000000E+00  0.00000000E+00  0.00000000E+00
  0.00000000E+00  0.00000000E+00  0.00000000E+00
  0.00000000E+00  0.00000000E+00  0.00000000E+00
  0.00000000E+00  0.00000000E+00  0.00000000E+00
  0.00000000E+00  0.00000000E+00  0.00000000E+00
  0.00000000E+00  0.00000000E+00  0.00000000E+00
  0.00000000E+00  0.00000000E+00  0.00000000E+00
  0.00000000E+00  0.00000000E+00  0.00000000E+00
  0.00000000E+00  0.00000000E+00  0.00000000E+00
  0.00000000E+00  0.00000000E+00  0.00000000E+00
  0.00000000E+00  0.00000000E+00  0.00000000E+00
  0.00000000E+00  0.00000000E+00  0.00000000E+00
  0.00000000E+00  0.00000000E+00  0.00000000E+00
  0.00000000E+00  0.00000000E+00  0.00000000E+00
  0.00000000E+00  0.00000000E+00  0.00000000E+00
  0.00000000E+00  0.00000000E+00  0.00000000E+00
  0.00000000E+00  0.00000000E+00  0.00000000E+00
  0.00000000E+00  0.00000000E+00  0.00000000E+00
  0.00000000E+00  0.00000000E+00  0.00000000E+00
  0.00000000E+00  0.00000000E+00  0.00000000E+00
  0.00000000E+00  0.00000000E+00  0.00000000E+00
  0.00000000E+00  0.00000000E+00  0.00000000E+00
  0.00000000E+00  0.00000000E+00  0.00000000E+00
  0.00000000E+00  0.00000000E+00  0.00000000E+00
  0.00000000E+00  0.00000000E+00  0.00000000E+00
  0.00000000E+00  0.00000000E+00  0.00000000E+00
  0.00000000E+00  0.00000000E+00  0.00000000E+00
  0.00000000E+00  0.00000000E+00  0.00000000E+00
  0.00000000E+00  0.00000000E+00  0.00000000E+00
  0.00000000E+00  0.00000000E+00  0.00000000E+00
  0.00000000E+00  0.00000000E+00  0.00000000E+00
  0.00000000E+00  0.00000000E+00  0.00000000E+00
  0.00000000E+00  0.00000000E+00  0.00000000E+00
  0.00000000E+00  0.00000000E+00  0.00000000E+00
  0.00000000E+00  0.00000000E+00  0.00000000E+00
  0.00000000E+00  0.00000000E+00  0.00000000E+00
  0.00000000E+00  0.00000000E+00  0.00000000E+00
  0.00000000E+00  0.00000000E+00  0.00000000E+00
  0.00000000E+00  0.00000000E+00  0.00000000E+00
  0.00000000E+00  0.00000000E+00  0.00000000E+00
  0.00000000E+00  0.00000000E+00  0.00000000E+00
  0.00000000E+00  0.00000000E+00  0.00000000E+00
  0.00000000E+00  0.00000000E+00  0.00000000E+00
  0.00000000E+00  0.00000000E+00  0.00000000E+00
  0.00000000E+00  0.00000000E+00  0.00000000E+00
  0.00000000E+00  0.00000000E+00  0.00000000E+00
  0.00000000E+00  0.00000000E+00  0.00000000E+00
  0.00000000E+00  0.00000000E+00  0.00000000E+00
  0.00000000E+00  0.00000000E+00  0.00000000E+00
  0.00000000E+00  0.00000000E+00  0.00000000E+00
  0.00000000E+00  0.00000000E+00  0.00000000E+00
  0.00000000E+00  0.00000000E+00  0.00000000E+00
  0.00000000E+00  0.00000000E+00  0.00000000E+00
  0.00000000E+00  0.00000000E+00  0.00000000E+00
  0.00000000E+00  0.00000000E+00  0.00000000E+00
  0.00000000E+00  0.00000000E+00  0.00000000E+00
  0.00000000E+00  0.00000000E+00  0.00000000E+00
  0.00000000E+00  0.00000000E+00  0.00000000E+00
  0.00000000E+00  0.00000000E+00  0.00000000E+00
  0.00000000E+00  0.00000000E+00  0.00000000E+00
  0.00000000E+00  0.00000000E+00  0.00000000E+00
  0.00000000E+00  0.00000000E+00  0.00000000E+00
  0.00000000E+00  0.00000000E+00  0.00000000E+00
  0.00000000E+00  0.00000000E+00  0.00000000E+00
  0.00000000E+00  0.00000000E+00  0.00000000E+00
  0.00000000E+00  0.00000000E+00  0.00000000E+00
  0.00000000E+00  0.00000000E+00  0.00000000E+00
  0.00000000E+00  0.00000000E+00  0.00000000E+00
  0.00000000E+00  0.00000000E+00  0.00000000E+00
  0.00000000E+00  0.00000000E+00  0.00000000E+00
  0.00000000E+00  0.00000000E+00  0.00000000E+00
  0.00000000E+00  0.00000000E+00  0.00000000E+00
  0.00000000E+00  0.00000000E+00  0.00000000E+00
  0.00000000E+00  0.00000000E+00  0.00000000E+00
  0.00000000E+00  0.00000000E+00  0.00000000E+00
  0.00000000E+00  0.00000000E+00  0.00000000E+00
  0.00000000E+00  0.00000000E+00  0.00000000E+00
  0.00000000E+00  0.00000000E+00  0.00000000E+00
  0.00000000E+00  0.00000000E+00  0.00000000E+00
