Ca8 Si6 Ni4 O24                         
   1.00000000000000     
     7.7158789049907917   -0.1431911110297447    4.1221178187625620
     2.4112899706876156    7.3325179440337145    4.1192905947195317
    -0.1989878169875623   -0.1385809872853490    8.7462399980549925
   Ca   Ni   Si   O 
     8     4     6    24
Direct
  0.4982839319550152  0.4983550467976485  0.4983583375051452
  0.9983145294975273  0.9983263217064149  0.9983567813805720
  0.3848605329780241  0.7482556007106638  0.1122461114238220
  0.8848031533391918  0.6121659530680859  0.2484367920094712
  0.1122322972618832  0.3848317753963499  0.7483171518599860
  0.2482253740771299  0.8848784530697529  0.6122518022888457
  0.7482955232055346  0.1123154136402533  0.3848064543887588
  0.6122721813379499  0.2483328991395979  0.8847583768615834
  0.6444743313487535  0.6449425832711810  0.6444396727336681
  0.1450390897861809  0.1444506180374319  0.1444615668818443
  0.8520650645930772  0.8517790205628799  0.8523441590715208
  0.3520029778379978  0.3521234422113224  0.3520721360252352
  0.9505022770972502  0.2481823144642306  0.5461985194679500
  0.4505272891408154  0.0462341602398979  0.7482015494145600
  0.5461984481380000  0.9505087574957614  0.2482460656048389
  0.7481633018780300  0.4504978163638143  0.0461961229965837
  0.2482855625927201  0.5461616608947750  0.9504827026349858
  0.0461521692399529  0.7482578045287980  0.4504976106182781
  0.4088799143968558  0.5661557963832706  0.7564606387882904
  0.9089997210207201  0.2566615174976334  0.0657334327659100
  0.7565170223077544  0.4088520039270094  0.5659981447051194
  0.0658421303295853  0.9090451739570113  0.2566015904549275
  0.5659880923773244  0.7565411904037731  0.4088997240551109
  0.2566347199971659  0.0657627328725923  0.9090151349342293
  0.7401201020822512  0.9306314507760547  0.0876098046514500
  0.2401106368520587  0.5876387446273341  0.4304630282770603
  0.0874772692659036  0.7399852943572540  0.9307940436730604
  0.4304448125999798  0.2402448166568334  0.5877090100120483
  0.9307470953828272  0.0874938398795777  0.7401056105905894
  0.5876000332232962  0.4305466194429926  0.2401924797448487
  0.9762186713123882  0.1991756803179712  0.3774408076280409
  0.4760669369078698  0.8776486607025618  0.6990379237794926
  0.3775009146375865  0.9759125594821185  0.1993263172864275
  0.6989887821062553  0.4763086017769993  0.8775227002388846
  0.1995904019576926  0.3773006804520307  0.9759491437156953
  0.8774101603645690  0.6993405598659166  0.4760177558472876
  0.1193731218093674  0.2968816767012115  0.5206081276203207
  0.6195594362712100  0.0206104483862717  0.7966501171952700
  0.5205275243326781  0.1194905701226077  0.2967951865077296
  0.7966538875141609  0.6194291053290542  0.0207811411539325
  0.2968410970112245  0.5205783202479068  0.1194200686836453
  0.0206094806342776  0.7965643142351908  0.6195961545230233
 
  0.00000000E+00  0.00000000E+00  0.00000000E+00
  0.00000000E+00  0.00000000E+00  0.00000000E+00
  0.00000000E+00  0.00000000E+00  0.00000000E+00
  0.00000000E+00  0.00000000E+00  0.00000000E+00
  0.00000000E+00  0.00000000E+00  0.00000000E+00
  0.00000000E+00  0.00000000E+00  0.00000000E+00
  0.00000000E+00  0.00000000E+00  0.00000000E+00
  0.00000000E+00  0.00000000E+00  0.00000000E+00
  0.00000000E+00  0.00000000E+00  0.00000000E+00
  0.00000000E+00  0.00000000E+00  0.00000000E+00
  0.00000000E+00  0.00000000E+00  0.00000000E+00
  0.00000000E+00  0.00000000E+00  0.00000000E+00
  0.00000000E+00  0.00000000E+00  0.00000000E+00
  0.00000000E+00  0.00000000E+00  0.00000000E+00
  0.00000000E+00  0.00000000E+00  0.00000000E+00
  0.00000000E+00  0.00000000E+00  0.00000000E+00
  0.00000000E+00  0.00000000E+00  0.00000000E+00
  0.00000000E+00  0.00000000E+00  0.00000000E+00
  0.00000000E+00  0.00000000E+00  0.00000000E+00
  0.00000000E+00  0.00000000E+00  0.00000000E+00
  0.00000000E+00  0.00000000E+00  0.00000000E+00
  0.00000000E+00  0.00000000E+00  0.00000000E+00
  0.00000000E+00  0.00000000E+00  0.00000000E+00
  0.00000000E+00  0.00000000E+00  0.00000000E+00
  0.00000000E+00  0.00000000E+00  0.00000000E+00
  0.00000000E+00  0.00000000E+00  0.00000000E+00
  0.00000000E+00  0.00000000E+00  0.00000000E+00
  0.00000000E+00  0.00000000E+00  0.00000000E+00
  0.00000000E+00  0.00000000E+00  0.00000000E+00
  0.00000000E+00  0.00000000E+00  0.00000000E+00
  0.00000000E+00  0.00000000E+00  0.00000000E+00
  0.00000000E+00  0.00000000E+00  0.00000000E+00
  0.00000000E+00  0.00000000E+00  0.00000000E+00
  0.00000000E+00  0.00000000E+00  0.00000000E+00
  0.00000000E+00  0.00000000E+00  0.00000000E+00
  0.00000000E+00  0.00000000E+00  0.00000000E+00
  0.00000000E+00  0.00000000E+00  0.00000000E+00
  0.00000000E+00  0.00000000E+00  0.00000000E+00
  0.00000000E+00  0.00000000E+00  0.00000000E+00
  0.00000000E+00  0.00000000E+00  0.00000000E+00
  0.00000000E+00  0.00000000E+00  0.00000000E+00
  0.00000000E+00  0.00000000E+00  0.00000000E+00
