Ca4 Co4 P6 O24                          
   1.00000000000000     
     2.5738810000000001    7.3022780000000003    4.3974349999999998
    -0.0183240000000000    0.0579250000000000    8.6598330000000008
     7.5922150000000004    0.0883530000000000    4.1817440000000001
   Ca   Co   P    O 
     4     4     6    24
Direct
  0.5221565408442194  0.4855486521318280  0.5022371381174046
  0.9425847768807081  0.0054167017960391  0.0298070730404334
  0.3744016779888100  0.7507238705762100  0.0900290705789352
  0.1042961253580163  0.4080297793310255  0.7555844801180813
  0.6417431204381188  0.6464794503873298  0.6445231205415299
  0.1483138206039255  0.1506562552590664  0.1571675037906438
  0.8474964435500019  0.8713298029855245  0.8409148472673634
  0.3358084702918504  0.3423310290038014  0.3527674162774288
  0.2414553993056686  0.5544925070581171  0.9516735990659378
  0.0375958984308848  0.7601203575604456  0.4553113944389086
  0.9550909566266351  0.2524328800969017  0.5573467998427231
  0.4546727499540497  0.0522734372224099  0.7466624268721627
  0.5312175874587770  0.9407398887891348  0.2526326351821757
  0.7478654841232136  0.4646022980293736  0.0300950979953384
  0.5591953084800491  0.7681510751756808  0.4223544198088362
  0.2618052487953982  0.0810094356629445  0.9109927117237471
  0.4069415892126128  0.5655368176541425  0.7687934053852314
  0.9061811788899946  0.2759214892623276  0.0566300838022550
  0.7757866857277158  0.4196391334359751  0.5556487493538222
  0.0656432614100881  0.9072017247250393  0.2591564449768026
  0.9164265835669735  0.0968035449160232  0.7428079862824492
  0.5858409357934624  0.4782235746115467  0.2137708242902622
  0.7159575066609066  0.9155293994660252  0.0894358482413631
  0.2281349858937126  0.5925965668398753  0.4356709858883873
  0.0807742353413331  0.7408896681448078  0.9357867797769442
  0.4229536413586696  0.2358232935145808  0.5846483405490877
  0.1911664398593008  0.3934176294570177  0.9824599604836267
  0.8841089155325838  0.6946515123622335  0.5109419957041296
  0.0204900951848685  0.1947014014635477  0.3878079978739600
  0.4848707765256091  0.8725603602167508  0.7273834438550999
  0.3832918117567934  0.9466912012575193  0.2053959070928661
  0.6826359440301585  0.4832436864127896  0.8876095882856476
  0.2886827126353415  0.5219004979107177  0.1161587304372932
  0.0141106526430898  0.8204778957116744  0.6059689037343996
  0.1014760751397950  0.3016728448616929  0.5519612760777102
  0.6067090567087671  0.0299434220562746  0.7954729197847924
  0.4840877500109271  0.1191334828796784  0.2860855010882947
  0.8272875043452202  0.6182830098960111  0.9492392029086041
 
             NaN             NaN             NaN
             NaN             NaN             NaN
             NaN             NaN             NaN
             NaN             NaN             NaN
             NaN             NaN             NaN
             NaN             NaN             NaN
             NaN             NaN             NaN
             NaN             NaN             NaN
             NaN             NaN             NaN
             NaN             NaN             NaN
             NaN             NaN             NaN
             NaN             NaN             NaN
             NaN             NaN             NaN
             NaN             NaN             NaN
             NaN             NaN             NaN
             NaN             NaN             NaN
             NaN             NaN             NaN
             NaN             NaN             NaN
             NaN             NaN             NaN
             NaN             NaN             NaN
             NaN             NaN             NaN
             NaN             NaN             NaN
             NaN             NaN             NaN
             NaN             NaN             NaN
             NaN             NaN             NaN
             NaN             NaN             NaN
             NaN             NaN             NaN
             NaN             NaN             NaN
             NaN             NaN             NaN
             NaN             NaN             NaN
             NaN             NaN             NaN
             NaN             NaN             NaN
             NaN             NaN             NaN
             NaN             NaN             NaN
             NaN             NaN             NaN
             NaN             NaN             NaN
             NaN             NaN             NaN
             NaN             NaN             NaN
