Ca4 Co4 P6 O24                          
   1.00000000000000     
     2.5738810000000001    7.3022780000000003    4.3974349999999998
    -0.0183240000000000    0.0579250000000000    8.6598330000000008
     7.5922150000000004    0.0883530000000000    4.1817440000000001
   Ca   Co   P    O 
     4     4     6    24
Direct
  0.5221614007451241  0.4855163489935282  0.5022474028282896
  0.9425541711501658  0.0054361870463063  0.0298309499700657
  0.3743920552605848  0.7507229703827483  0.0900243288491396
  0.1042914362678479  0.4080435475210406  0.7555766938606649
  0.6417422715994070  0.6464503485208014  0.6445420065761583
  0.1483107809990578  0.1506832891748011  0.1571686095496876
  0.8474890101756311  0.8713555530703347  0.8409117698313203
  0.3358019377465249  0.3422754567987810  0.3527951658939686
  0.2414535737147581  0.5545019850143825  0.9516547290842410
  0.0375854115243514  0.7601319067973369  0.4553124297822838
  0.9550973453681202  0.2524088171334539  0.5573432559020788
  0.4546548168902990  0.0522548606537178  0.7466790493236964
  0.5312056625198528  0.9407476759149779  0.2526416738314206
  0.7478544437680218  0.4646060582906508  0.0300784696143087
  0.5591829744686472  0.7681673039681269  0.4223524243344319
  0.2618081895728527  0.0810187399949014  0.9109811492591506
  0.4069484446283390  0.5655419205982710  0.7687930791972806
  0.9061935943940987  0.2759081441130455  0.0566548937897549
  0.7757982309964628  0.4196328497369387  0.5556465415483605
  0.0656408552689346  0.9072083038954173  0.2591396341689646
  0.9164387367643329  0.0968264355242889  0.7428154774118243
  0.5858079708569756  0.4782194688015218  0.2137700605903734
  0.7159562398802483  0.9155307276427559  0.0894467611984112
  0.2281448874474166  0.5925716846137310  0.4356693367569489
  0.0807851080942350  0.7409101922054410  0.9357907993477941
  0.4229566982823858  0.2358292096008132  0.5845985905546250
  0.1911600228515157  0.3934424375110569  0.9824457677543580
  0.8841037958180343  0.6946621080247281  0.5109230657879378
  0.0205240768469550  0.1946906598005595  0.3878129858642315
  0.4848817528870624  0.8725535614299639  0.7274038351850018
  0.3832886467372819  0.9466937670880433  0.2053886716047756
  0.6826832196591783  0.4831872597756635  0.8876090100632773
  0.2886928090069549  0.5218783754663178  0.1161990057403939
  0.0141048486584524  0.8204680586002415  0.6059680242574558
  0.1015006299276741  0.3016865174920968  0.5519412817060722
  0.6067135143325022  0.0299696441370354  0.7954508888008898
  0.4840927363230210  0.1191446193538361  0.2860831231789572
  0.8272556964456238  0.6183025090613733  0.9492436501426910
 
             NaN             NaN             NaN
             NaN             NaN             NaN
             NaN             NaN             NaN
             NaN             NaN             NaN
             NaN             NaN             NaN
             NaN             NaN             NaN
             NaN             NaN             NaN
             NaN             NaN             NaN
             NaN             NaN             NaN
             NaN             NaN             NaN
             NaN             NaN             NaN
             NaN             NaN             NaN
             NaN             NaN             NaN
             NaN             NaN             NaN
             NaN             NaN             NaN
             NaN             NaN             NaN
             NaN             NaN             NaN
             NaN             NaN             NaN
             NaN             NaN             NaN
             NaN             NaN             NaN
             NaN             NaN             NaN
             NaN             NaN             NaN
             NaN             NaN             NaN
             NaN             NaN             NaN
             NaN             NaN             NaN
             NaN             NaN             NaN
             NaN             NaN             NaN
             NaN             NaN             NaN
             NaN             NaN             NaN
             NaN             NaN             NaN
             NaN             NaN             NaN
             NaN             NaN             NaN
             NaN             NaN             NaN
             NaN             NaN             NaN
             NaN             NaN             NaN
             NaN             NaN             NaN
             NaN             NaN             NaN
             NaN             NaN             NaN
