Cr6 P4 O16                              
   1.00000000000000     
     4.7028729922291364   -0.0091242221816677   -0.7449378679399825
     0.0232453589249999   11.7456582297534862   -0.0059973062169561
    -0.5075532309719912    0.0045553083733837    5.5190352355025336
   Cr   P    O 
     6     4    16
Direct
  0.6091914389606359  0.1215594959119954  0.4129717671517028
  0.1104366790873215  0.3789207280740570  0.9131498655778856
  0.3912760589371373  0.8782911185512745  0.5870051290972000
  0.8901261639389517  0.6212310237463754  0.0865293800122373
  0.5005543457117341  0.5003789076091749  0.5001812915381336
  0.0005412978615169  0.9996295284563885  0.0003711601675391
  0.9331033014645982  0.3534579020811108  0.3165607085542064
  0.4326420262928607  0.1464770720068174  0.8164816546052478
  0.0667039003400873  0.6469004876858975  0.6830046003189523
  0.5671411097928427  0.8531309504529148  0.1835217025757174
  0.2580166732662974  0.3710793529554408  0.3082972092631522
  0.7575854033648781  0.1289122606332782  0.8084737277227134
  0.7418122749621006  0.6295199568358498  0.6917157192388501
  0.2422130865959886  0.8703599840318574  0.1919719257030863
  0.8663596948746530  0.4021169125536090  0.5575537923534100
  0.3657820951775292  0.0981362105082013  0.0577373405709878
  0.1339356473241295  0.5983197365230524  0.4422058698337139
  0.6340760216758952  0.9016874025081094  0.9425999381498258
  0.7779945985108512  0.4281388517253362  0.0932213719067363
  0.2778564433119541  0.0716526725454258  0.5934104322039246
  0.2214931381703025  0.5720869829481074  0.9062063871406707
  0.7214183008111945  0.9280148060421638  0.4066833265536474
  0.8592779707731495  0.2291870906047322  0.2899527863014200
  0.3585059386564353  0.2707158029993835  0.7895166933204578
  0.1404093747945225  0.7711422180451422  0.7101315445825307
  0.6415470153424181  0.7289525439642972  0.2105446755560436
 
  0.00000000E+00  0.00000000E+00  0.00000000E+00
  0.00000000E+00  0.00000000E+00  0.00000000E+00
  0.00000000E+00  0.00000000E+00  0.00000000E+00
  0.00000000E+00  0.00000000E+00  0.00000000E+00
  0.00000000E+00  0.00000000E+00  0.00000000E+00
  0.00000000E+00  0.00000000E+00  0.00000000E+00
  0.00000000E+00  0.00000000E+00  0.00000000E+00
  0.00000000E+00  0.00000000E+00  0.00000000E+00
  0.00000000E+00  0.00000000E+00  0.00000000E+00
  0.00000000E+00  0.00000000E+00  0.00000000E+00
  0.00000000E+00  0.00000000E+00  0.00000000E+00
  0.00000000E+00  0.00000000E+00  0.00000000E+00
  0.00000000E+00  0.00000000E+00  0.00000000E+00
  0.00000000E+00  0.00000000E+00  0.00000000E+00
  0.00000000E+00  0.00000000E+00  0.00000000E+00
  0.00000000E+00  0.00000000E+00  0.00000000E+00
  0.00000000E+00  0.00000000E+00  0.00000000E+00
  0.00000000E+00  0.00000000E+00  0.00000000E+00
  0.00000000E+00  0.00000000E+00  0.00000000E+00
  0.00000000E+00  0.00000000E+00  0.00000000E+00
  0.00000000E+00  0.00000000E+00  0.00000000E+00
  0.00000000E+00  0.00000000E+00  0.00000000E+00
  0.00000000E+00  0.00000000E+00  0.00000000E+00
  0.00000000E+00  0.00000000E+00  0.00000000E+00
  0.00000000E+00  0.00000000E+00  0.00000000E+00
  0.00000000E+00  0.00000000E+00  0.00000000E+00
