S128                                    
   1.00000000000000     
    10.4755850612357300   -0.0000006457551300   -0.0000002962458602
    -0.0000007905340534   12.9036438897495369   -0.0000009812108657
    -0.0000007005484878   -0.0000018767194389   24.5827174331651328
   S 
   128
Direct
  0.8552375184440280  0.9525009467223384  0.9513277019073527
  0.1447658378553882  0.0475084081958670  0.0486703427036730
  0.8947658127592177  0.7975084781122632  0.9513296354369700
  0.1052375128958758  0.2025009671537958  0.0486723191795306
  0.8947659864486539  0.9524915397539218  0.7986703789176772
  0.1052375269385948  0.0474990475027468  0.2013276908552371
  0.8552375481789056  0.7974990193503757  0.7986723313542115
  0.1447658704093087  0.2024915337199218  0.2013296490052312
  0.8552375532472709  0.4525009772150241  0.4513276753070130
  0.1447658378643055  0.5475084139430848  0.5486703794755314
  0.8947658530529452  0.2975084222934967  0.4513296349617093
  0.1052375220845718  0.7025010103204679  0.5486723095514208
  0.8947658634746958  0.4524915593324508  0.2986703928932641
  0.1052375091997604  0.5474990234651003  0.7013276885116539
  0.8552375177304299  0.2974990260893904  0.2986723135084048
  0.1447658470633542  0.7024915417453599  0.7013296297880487
  0.3552374450291964  0.9525009729272185  0.4513276576043950
  0.6447658562715191  0.0475084108067563  0.5486703611825305
  0.3947658205937259  0.7975084315889802  0.4513296023320450
  0.6052375263035614  0.2025009867991088  0.5486723283470809
  0.3947658373349938  0.9524915602420734  0.2986703710445866
  0.6052374864358327  0.0474990323994078  0.7013276892089948
  0.3552375361151903  0.7974989987372467  0.2986723144669128
  0.6447658416821014  0.2024915720947860  0.7013296495490948
  0.3552374951180468  0.4525009866103389  0.9513276775581403
  0.6447658374765339  0.5475084294344867  0.0486703583483461
  0.3947657942666609  0.2975084043475178  0.9513296353512217
  0.6052375831259695  0.7025010228827711  0.0486723072063739
  0.3947658370588982  0.4524915656298489  0.7986703537956146
  0.6052375176337321  0.5474990076582102  0.2013276973686828
  0.3552375292909176  0.2974990499820649  0.7986723333070600
  0.6447657703775604  0.7024915979071977  0.2013296444658152
  0.7837429922159416  0.0301147134897661  0.0762840879301265
  0.2162461364408585  0.9698855184021085  0.9237155660840770
  0.9662461532853968  0.7198854657350111  0.0762844222592278
  0.0337430345562098  0.2801147283052501  0.9237158952403064
  0.9662462074246179  0.0301144913582121  0.6737155940719859
  0.0337430628579085  0.9698852276261931  0.3262840807876728
  0.7837430427996352  0.7198852341866697  0.6737158992671297
  0.2162461407201732  0.2801145131861986  0.3262844069482895
  0.7837430390165281  0.5301147346115229  0.5762841046561462
  0.2162461264287856  0.4698854858750252  0.4237155777256660
  0.9662461795860011  0.2198855020701700  0.5762844145641850
  0.0337430370498950  0.7801147263140038  0.4237159102767549
  0.9662461843023991  0.5301145410091763  0.1737155735206883
  0.0337429827639681  0.4698852916538030  0.8262840750464662
  0.7837430920396997  0.2198852899875234  0.1737159218598023
  0.2162460994523769  0.7801145300441235  0.8262844254734532
  0.2837429992606246  0.0301146889838151  0.5762840894180599
  0.7162461704958076  0.9698854981848370  0.4237155681282374
  0.4662461193642358  0.7198854709562212  0.5762844232386470
  0.5337430271824459  0.2801147579855368  0.4237159101668340
  0.4662461354541634  0.0301145312749895  0.1737155828581010
  0.5337430204702329  0.9698852816406074  0.8262840912175946
  0.2837430629376030  0.7198852784461636  0.1737159060146638
  0.7162461986976254  0.2801145143581962  0.8262844270150254
  0.2837429885262068  0.5301146727470467  0.0762840982836579
  0.7162460863938378  0.4698855260772206  0.9237155787382392
  0.4662460774331123  0.2198854996244606  0.0762844258906625
  0.5337429904616187  0.7801147463068432  0.9237158897291735
  0.4662461817861683  0.5301144753614722  0.6737156018762960
  0.5337430158915382  0.4698852815298054  0.3262840927473363
  0.2837430409027277  0.2198852390122923  0.6737158934224254
  0.7162461427255806  0.7801145239902070  0.3262844352384064
  0.7080048985090670  0.9806509573501287  0.0041039965923417
  0.2919948016532530  0.0193412863524358  0.9958963920451254
  0.0419948483634229  0.7693412941583517  0.0041035948814141
  0.9580049051617650  0.2306509383791990  0.9958959901559510
  0.0419947919947106  0.9806587793723338  0.7458964021017422
  0.9580049054681368  0.0193490821906721  0.2541039870720638
  0.7080048797252019  0.7693490319901599  0.7458960120156206
  0.2919947875399984  0.2306586816596621  0.2541035919992254
  0.7080048757747051  0.4806509490201520  0.5041039908219958
  0.2919948263431777  0.5193412644972213  0.4958964120390945
  0.0419947710883264  0.2693412636246038  0.5041036128217655
  0.9580049090780633  0.7306509602097435  0.4958959975010799
  0.0419948620829871  0.4806587351229012  0.2458963994123735
  0.9580049607435939  0.5193489973097059  0.7541039910185461
  0.7080049180066652  0.2693490514618375  0.2458960005431550
  0.2919948480076755  0.7306587026259308  0.7541036082375925
  0.2080049095246395  0.9806509989874002  0.5041040078970127
  0.7919948192728086  0.0193412352892679  0.4958963834158467
  0.5419948728618138  0.7693412634456678  0.5041036006925097
  0.4580048256597919  0.2306509363907665  0.4958959988451213
  0.5419948355820310  0.9806587208237971  0.2458964034501889
  0.4580048834022747  0.0193490394091711  0.7541039963909881
  0.2080049142258673  0.7693490177883504  0.2458959924825947
  0.7919947941171159  0.2306587541979539  0.7541036036346256
  0.2080049270149473  0.4806509963194685  0.0041040233277130
  0.7919948176739382  0.5193413241645786  0.9958963827565412
  0.5419948338268910  0.2693412718298021  0.0041036055601182
  0.4580048791964444  0.7306509720742440  0.9958959995936354
  0.5419948102704097  0.4806587456329297  0.7458963778718797
  0.4580048889901889  0.5193490665264804  0.2541040075997500
  0.2080048512329284  0.2693490418927880  0.7458960044735647
  0.7919948791651805  0.7306586910777355  0.2541036238836440
  0.7864631895450458  0.9085830748977060  0.1297289188301534
  0.2135445144932646  0.0914171616183737  0.8702720267653064
  0.9635445395952758  0.8414171969865762  0.1297279841126553
  0.0364632392102564  0.1585830331077887  0.8702710719616462
  0.9635445489282404  0.9085828476928342  0.6202720202971577
  0.0364631752498354  0.0914169745105724  0.3797289341181127
  0.7864631554241299  0.8414169927961339  0.6202710863287848
  0.2135445865356047  0.1585828123484418  0.3797279704619214
  0.7864632346995464  0.4085830564729420  0.6297289313739540
  0.2135445191787468  0.5914171892769389  0.3702720210884038
  0.9635445125928541  0.3414171572575810  0.6297279876328261
  0.0364632024861820  0.6585830264350392  0.3702710841076637
  0.9635445500541735  0.4085827677321774  0.1202720027791102
  0.0364632242604301  0.5914168948559890  0.8797289218150297
  0.7864631606707775  0.3414169691787876  0.1202710980215187
  0.2135445279541628  0.6585828365633262  0.8797279767218242
  0.2864632005718803  0.9085830435709568  0.6297289021542483
  0.7135445620624523  0.0914171515096669  0.3702720207389234
  0.4635445091332429  0.8414172020288788  0.6297279836323924
  0.5364632150567772  0.1585830611054959  0.3702710746777740
  0.4635445206345636  0.9085828157190861  0.1202720102791162
  0.5364632215846612  0.0914169374704130  0.8797289143557023
  0.2864632376170135  0.8414169175736319  0.1202710893512133
  0.7135445267572393  0.1585828546096053  0.8797279787200978
  0.2864632908643543  0.4085831005125655  0.1297289092321918
  0.7135445144468235  0.5914171591346076  0.8702720258506247
  0.4635444626795078  0.3414171880057211  0.1297279876774127
  0.5364632499113782  0.6585830490441680  0.8702710606648481
  0.4635445242242255  0.4085828641072595  0.6202720279153127
  0.5364632031724312  0.5914169341704181  0.3797289183502670
  0.2864632020056987  0.3414169525053339  0.6202710700634668
  0.7135445461554397  0.6585828007274657  0.3797279745963493
 
  0.00000000E+00  0.00000000E+00  0.00000000E+00
  0.00000000E+00  0.00000000E+00  0.00000000E+00
  0.00000000E+00  0.00000000E+00  0.00000000E+00
  0.00000000E+00  0.00000000E+00  0.00000000E+00
  0.00000000E+00  0.00000000E+00  0.00000000E+00
  0.00000000E+00  0.00000000E+00  0.00000000E+00
  0.00000000E+00  0.00000000E+00  0.00000000E+00
  0.00000000E+00  0.00000000E+00  0.00000000E+00
  0.00000000E+00  0.00000000E+00  0.00000000E+00
  0.00000000E+00  0.00000000E+00  0.00000000E+00
  0.00000000E+00  0.00000000E+00  0.00000000E+00
  0.00000000E+00  0.00000000E+00  0.00000000E+00
  0.00000000E+00  0.00000000E+00  0.00000000E+00
  0.00000000E+00  0.00000000E+00  0.00000000E+00
  0.00000000E+00  0.00000000E+00  0.00000000E+00
  0.00000000E+00  0.00000000E+00  0.00000000E+00
  0.00000000E+00  0.00000000E+00  0.00000000E+00
  0.00000000E+00  0.00000000E+00  0.00000000E+00
  0.00000000E+00  0.00000000E+00  0.00000000E+00
  0.00000000E+00  0.00000000E+00  0.00000000E+00
  0.00000000E+00  0.00000000E+00  0.00000000E+00
  0.00000000E+00  0.00000000E+00  0.00000000E+00
  0.00000000E+00  0.00000000E+00  0.00000000E+00
  0.00000000E+00  0.00000000E+00  0.00000000E+00
  0.00000000E+00  0.00000000E+00  0.00000000E+00
  0.00000000E+00  0.00000000E+00  0.00000000E+00
  0.00000000E+00  0.00000000E+00  0.00000000E+00
  0.00000000E+00  0.00000000E+00  0.00000000E+00
  0.00000000E+00  0.00000000E+00  0.00000000E+00
  0.00000000E+00  0.00000000E+00  0.00000000E+00
  0.00000000E+00  0.00000000E+00  0.00000000E+00
  0.00000000E+00  0.00000000E+00  0.00000000E+00
  0.00000000E+00  0.00000000E+00  0.00000000E+00
  0.00000000E+00  0.00000000E+00  0.00000000E+00
  0.00000000E+00  0.00000000E+00  0.00000000E+00
  0.00000000E+00  0.00000000E+00  0.00000000E+00
  0.00000000E+00  0.00000000E+00  0.00000000E+00
  0.00000000E+00  0.00000000E+00  0.00000000E+00
  0.00000000E+00  0.00000000E+00  0.00000000E+00
  0.00000000E+00  0.00000000E+00  0.00000000E+00
  0.00000000E+00  0.00000000E+00  0.00000000E+00
  0.00000000E+00  0.00000000E+00  0.00000000E+00
  0.00000000E+00  0.00000000E+00  0.00000000E+00
  0.00000000E+00  0.00000000E+00  0.00000000E+00
  0.00000000E+00  0.00000000E+00  0.00000000E+00
  0.00000000E+00  0.00000000E+00  0.00000000E+00
  0.00000000E+00  0.00000000E+00  0.00000000E+00
  0.00000000E+00  0.00000000E+00  0.00000000E+00
  0.00000000E+00  0.00000000E+00  0.00000000E+00
  0.00000000E+00  0.00000000E+00  0.00000000E+00
  0.00000000E+00  0.00000000E+00  0.00000000E+00
  0.00000000E+00  0.00000000E+00  0.00000000E+00
  0.00000000E+00  0.00000000E+00  0.00000000E+00
  0.00000000E+00  0.00000000E+00  0.00000000E+00
  0.00000000E+00  0.00000000E+00  0.00000000E+00
  0.00000000E+00  0.00000000E+00  0.00000000E+00
  0.00000000E+00  0.00000000E+00  0.00000000E+00
  0.00000000E+00  0.00000000E+00  0.00000000E+00
  0.00000000E+00  0.00000000E+00  0.00000000E+00
  0.00000000E+00  0.00000000E+00  0.00000000E+00
  0.00000000E+00  0.00000000E+00  0.00000000E+00
  0.00000000E+00  0.00000000E+00  0.00000000E+00
  0.00000000E+00  0.00000000E+00  0.00000000E+00
  0.00000000E+00  0.00000000E+00  0.00000000E+00
  0.00000000E+00  0.00000000E+00  0.00000000E+00
  0.00000000E+00  0.00000000E+00  0.00000000E+00
  0.00000000E+00  0.00000000E+00  0.00000000E+00
  0.00000000E+00  0.00000000E+00  0.00000000E+00
  0.00000000E+00  0.00000000E+00  0.00000000E+00
  0.00000000E+00  0.00000000E+00  0.00000000E+00
  0.00000000E+00  0.00000000E+00  0.00000000E+00
  0.00000000E+00  0.00000000E+00  0.00000000E+00
  0.00000000E+00  0.00000000E+00  0.00000000E+00
  0.00000000E+00  0.00000000E+00  0.00000000E+00
  0.00000000E+00  0.00000000E+00  0.00000000E+00
  0.00000000E+00  0.00000000E+00  0.00000000E+00
  0.00000000E+00  0.00000000E+00  0.00000000E+00
  0.00000000E+00  0.00000000E+00  0.00000000E+00
  0.00000000E+00  0.00000000E+00  0.00000000E+00
  0.00000000E+00  0.00000000E+00  0.00000000E+00
  0.00000000E+00  0.00000000E+00  0.00000000E+00
  0.00000000E+00  0.00000000E+00  0.00000000E+00
  0.00000000E+00  0.00000000E+00  0.00000000E+00
  0.00000000E+00  0.00000000E+00  0.00000000E+00
  0.00000000E+00  0.00000000E+00  0.00000000E+00
  0.00000000E+00  0.00000000E+00  0.00000000E+00
  0.00000000E+00  0.00000000E+00  0.00000000E+00
  0.00000000E+00  0.00000000E+00  0.00000000E+00
  0.00000000E+00  0.00000000E+00  0.00000000E+00
  0.00000000E+00  0.00000000E+00  0.00000000E+00
  0.00000000E+00  0.00000000E+00  0.00000000E+00
  0.00000000E+00  0.00000000E+00  0.00000000E+00
  0.00000000E+00  0.00000000E+00  0.00000000E+00
  0.00000000E+00  0.00000000E+00  0.00000000E+00
  0.00000000E+00  0.00000000E+00  0.00000000E+00
  0.00000000E+00  0.00000000E+00  0.00000000E+00
  0.00000000E+00  0.00000000E+00  0.00000000E+00
  0.00000000E+00  0.00000000E+00  0.00000000E+00
  0.00000000E+00  0.00000000E+00  0.00000000E+00
  0.00000000E+00  0.00000000E+00  0.00000000E+00
  0.00000000E+00  0.00000000E+00  0.00000000E+00
  0.00000000E+00  0.00000000E+00  0.00000000E+00
  0.00000000E+00  0.00000000E+00  0.00000000E+00
  0.00000000E+00  0.00000000E+00  0.00000000E+00
  0.00000000E+00  0.00000000E+00  0.00000000E+00
  0.00000000E+00  0.00000000E+00  0.00000000E+00
  0.00000000E+00  0.00000000E+00  0.00000000E+00
  0.00000000E+00  0.00000000E+00  0.00000000E+00
  0.00000000E+00  0.00000000E+00  0.00000000E+00
  0.00000000E+00  0.00000000E+00  0.00000000E+00
  0.00000000E+00  0.00000000E+00  0.00000000E+00
  0.00000000E+00  0.00000000E+00  0.00000000E+00
  0.00000000E+00  0.00000000E+00  0.00000000E+00
  0.00000000E+00  0.00000000E+00  0.00000000E+00
  0.00000000E+00  0.00000000E+00  0.00000000E+00
  0.00000000E+00  0.00000000E+00  0.00000000E+00
  0.00000000E+00  0.00000000E+00  0.00000000E+00
  0.00000000E+00  0.00000000E+00  0.00000000E+00
  0.00000000E+00  0.00000000E+00  0.00000000E+00
  0.00000000E+00  0.00000000E+00  0.00000000E+00
  0.00000000E+00  0.00000000E+00  0.00000000E+00
  0.00000000E+00  0.00000000E+00  0.00000000E+00
  0.00000000E+00  0.00000000E+00  0.00000000E+00
  0.00000000E+00  0.00000000E+00  0.00000000E+00
  0.00000000E+00  0.00000000E+00  0.00000000E+00
  0.00000000E+00  0.00000000E+00  0.00000000E+00
  0.00000000E+00  0.00000000E+00  0.00000000E+00
  0.00000000E+00  0.00000000E+00  0.00000000E+00
