Ca2 Cr4 S6 O24                          
   1.00000000000000     
     7.4457259999999996   -0.0562560000000000    4.5752920000000001
     2.3582040000000002    7.0656100000000004    4.5633319999999999
    -0.0397340000000000   -0.0680320000000000    9.3347990000000003
   Ca   Cr   S    O 
     2     4     6    24
Direct
  0.2929616898384215  0.7327527954143667  0.5580062756677771
  0.9774154559602144  1.0422169274594826 -0.0196443821520238
  0.6701889540112097  0.6056718568884267  0.6663921597909025
  0.1489016863152123  0.1385987081483904  0.1553806745369632
  0.8302568225655903  0.8550682349525609  0.8525791901204415
  0.3475342923144512  0.3682956728367355  0.3592137727249770
  0.9637799396544890  0.2438031015654745  0.5592924627804727
  0.4694068508003408  0.0139029224151592  0.7486521346056099
  0.5255390667297876  0.9860335269666529  0.2500778801287833
  0.7561492596427568  0.4294622609199127  0.0435528570185786
  0.2397328459214364  0.5577226973848047  0.9512396242723095
  0.0393565103671716  0.7583511667332030  0.4262818317571588
  0.4171290150004744  0.5443894451502161  0.7902046337815908
  0.8992800975560780  0.2575944715935425  0.1161468196952075
  0.7868954711925786  0.4007641599041326  0.5648092408954564
  0.0738442543285436  0.9022370045202954  0.2449044879091095
  0.5291104601759182  0.8534726543854305  0.4298122653590079
  0.2701614447470419  0.0644409245834456  0.8685457185582227
  0.7121556098004072  0.9402368681001325  0.1141005240412898
  0.2225409855973942  0.6031522304438631  0.4325115033019239
  0.0998941801582288  0.7313028171569965  0.8683831240518565
  0.4930344255103127  0.1480202862625781  0.5680990407509137
  0.9276179926983443  0.0844345876856311  0.7349180690614172
  0.5774778394014052  0.4620362882451851  0.1894918907788661
  1.0304162976704097  0.1815934929116075  0.4149033176258654
  0.5252867966327921  0.8202553029222132  0.7578479651151817
  0.3839063605113784 -0.0422390821539497  0.2286896174831395
  0.7471259853295528  0.3836752958004127  0.9169086862584539
  0.1863106194712181  0.3936477327485348  1.0191267693081949
  0.8964348991012469  0.6922301266099717  0.4636888923149922
  0.1089285881873097  0.2927599556399344  0.5494289308135050
  0.5835991748780111  1.0147635102906198  0.8225694676458453
  0.4661673665486450  0.1800487736185235  0.2347842619308823
  0.8215496377526441  0.5919162956545525 -0.0492979398231908
  0.2512790077688146  0.5881612513330524  0.0816821913395419
 -0.0102259471589645  0.8350476424672640  0.5579292230099424
 
             NaN             NaN             NaN
             NaN             NaN             NaN
             NaN             NaN             NaN
             NaN             NaN             NaN
             NaN             NaN             NaN
             NaN             NaN             NaN
             NaN             NaN             NaN
             NaN             NaN             NaN
             NaN             NaN             NaN
             NaN             NaN             NaN
             NaN             NaN             NaN
             NaN             NaN             NaN
             NaN             NaN             NaN
             NaN             NaN             NaN
             NaN             NaN             NaN
             NaN             NaN             NaN
             NaN             NaN             NaN
             NaN             NaN             NaN
             NaN             NaN             NaN
             NaN             NaN             NaN
             NaN             NaN             NaN
             NaN             NaN             NaN
             NaN             NaN             NaN
             NaN             NaN             NaN
             NaN             NaN             NaN
             NaN             NaN             NaN
             NaN             NaN             NaN
             NaN             NaN             NaN
             NaN             NaN             NaN
             NaN             NaN             NaN
             NaN             NaN             NaN
             NaN             NaN             NaN
             NaN             NaN             NaN
             NaN             NaN             NaN
             NaN             NaN             NaN
             NaN             NaN             NaN
