Ca2 Cr4 S6 O24
1.0
7.445726 -0.056256 4.575292
2.358204 7.065610 4.563332
-0.039734 -0.068032 9.334799
Ca Cr S O
2 4 6 24
direct
0.379073 0.693219 0.542647 Ca
0.999161 0.993426 1.007756 Ca
0.651754 0.633003 0.656945 Cr
0.138338 0.154112 0.150365 Cr
0.847496 0.841998 0.849245 Cr
0.344503 0.356101 0.353699 Cr
0.946882 0.247511 0.562204 S
0.460889 0.029241 0.740368 S
0.526860 0.968236 0.239603 S
0.749930 0.435427 0.049970 S
0.243149 0.560760 0.945572 S
0.057133 0.749653 0.442006 S
0.401921 0.571272 0.770734 O
0.905326 0.254915 0.087620 O
0.771700 0.406739 0.579148 O
0.071785 0.907680 0.266316 O
0.530199 0.783269 0.380638 O
0.274861 0.054112 0.883420 O
0.716221 0.961112 0.105772 O
0.230548 0.589843 0.415564 O
0.085949 0.743145 0.908417 O
0.466925 0.204820 0.590320 O
0.922965 0.085131 0.735491 O
0.584644 0.429279 0.215814 O
0.989636 0.193274 0.420326 O
0.486515 0.884892 0.683348 O
0.399312 0.020552 0.154986 O
0.715623 0.445863 0.908778 O
0.183382 0.405746 0.999238 O
0.892135 0.703582 0.495402 O
0.102512 0.291257 0.536387 O
0.607225 0.962668 0.808970 O
0.461089 0.105183 0.321769 O
0.808987 0.590075 0.002003 O
0.286700 0.555464 0.077499 O
0.045092 0.802585 0.573043 O
