Ca1 Ni4 S6 O24                          
   1.00000000000000     
     7.6239140000000001    0.2720960000000000    4.1559410000000003
     2.7682240000000000    6.9634499999999999    4.4436390000000001
     0.6500990000000000    0.2264140000000000    8.7255389999999995
   Ca   Ni   S    O 
     1     4     6    24
Direct
  0.2582969070311137  0.8362322733201429  0.5643283367317929
  0.6511490161404012  0.6532718865768934  0.6426021175122730
  0.1407890406727447  0.1570072661049426  0.1369818028524539
  0.8397449600860259  0.8301148744689829  0.8594612574469196
  0.3623248175613956  0.3320647662661351  0.3590072098043056
  0.9731388320271573  0.2506061459293577  0.5104488284802094
  0.4287245688048857  0.0308172962076973  0.7642765204201761
  0.5715914162093627  0.9709357396338076  0.2263385939937075
  0.7330542063260554  0.4546716111234677  0.0624251690903216
  0.2634501278381310  0.5155616556391618  0.9447332708472183
  0.0319251635806757  0.7453271748164000  0.4675886399632096
  0.4335892058441811  0.5489026672146952  0.7617751305998065
  0.9092755528001494  0.2795645948232455  0.0568552959121084
  0.8273384347362456  0.4088333491438929  0.5783660942514929
  0.0768140457649100  0.9284858669833100  0.3575501585205254
  0.5971441557835859  0.7754741500749396  0.3891807364687198
  0.2794697914315828  0.0138759942468339  0.9639248881806597
  0.7253884375879156  0.9621956497904909  0.0415776542217868
  0.1908221770882328  0.5976100531015289  0.3850986686145901
  0.0971002221360058  0.7041659815991964  0.9158053830017582
  0.3691109719087619  0.2308394033334920  0.6255493008629155
  0.9402324889216100  0.0629280517813372  0.6459749188181408
  0.5721414516880320  0.4192990726609998  0.2546849621842950
  0.9787698065500335  0.3018592025289236  0.3157567981873132
  0.4325841512775762  0.8899826831149997  0.7154625886962998
  0.3781016784585349  0.0249168776134637  0.2257117028453092
  0.6693812182904143  0.5234220501532930  0.9063512758293133
  0.2348586877294601  0.3643343691507412  0.9420198674426558
  0.8441871175051173  0.7856763042308700  0.4729766096654109
  0.1712619658138672  0.2031678403585099  0.4994706161102391
  0.6197145026006831  0.9801401366965774  0.7609166009487131
  0.5699305455950046  0.1103811755423349  0.2718520491013755
  0.7589355671434707  0.6103846778228171  0.0608840507782232
  0.2980725620208468  0.4582396931458760  0.1141582547303734
  0.0260682357245169  0.6848671742989176  0.6669697098697770
 
             NaN             NaN             NaN
             NaN             NaN             NaN
             NaN             NaN             NaN
             NaN             NaN             NaN
             NaN             NaN             NaN
             NaN             NaN             NaN
             NaN             NaN             NaN
             NaN             NaN             NaN
             NaN             NaN             NaN
             NaN             NaN             NaN
             NaN             NaN             NaN
             NaN             NaN             NaN
             NaN             NaN             NaN
             NaN             NaN             NaN
             NaN             NaN             NaN
             NaN             NaN             NaN
             NaN             NaN             NaN
             NaN             NaN             NaN
             NaN             NaN             NaN
             NaN             NaN             NaN
             NaN             NaN             NaN
             NaN             NaN             NaN
             NaN             NaN             NaN
             NaN             NaN             NaN
             NaN             NaN             NaN
             NaN             NaN             NaN
             NaN             NaN             NaN
             NaN             NaN             NaN
             NaN             NaN             NaN
             NaN             NaN             NaN
             NaN             NaN             NaN
             NaN             NaN             NaN
             NaN             NaN             NaN
             NaN             NaN             NaN
             NaN             NaN             NaN
