Ca1 Ni4 S6 O24                          
   1.00000000000000     
     7.6239140000000001    0.2720960000000000    4.1559410000000003
     2.7682240000000000    6.9634499999999999    4.4436390000000001
     0.6500990000000000    0.2264140000000000    8.7255389999999995
   Ca   Ni   S    O 
     1     4     6    24
Direct
  0.2598721966781685  0.8300300923795207  0.5644439438735344
  0.6500867578788088  0.6517030321936830  0.6435197448315410
  0.1385030291529640  0.1590445999254406  0.1368531077883877
  0.8364704250844551  0.8320643073852184  0.8570370335779907
  0.3657480739868625  0.3335865724410986  0.3620556632125891
  0.9735088813843304  0.2439063620491946  0.5141938789871786
  0.4298708344167910  0.0319069862353297  0.7620962477381988
  0.5707639648504127  0.9678184100795433  0.2266149087788021
  0.7358730881468833  0.4559898710904032  0.0608651404266164
  0.2578160426185845  0.5201309278751134  0.9462444742737220
  0.0359438151545920  0.7450344029808926  0.4640186619953153
  0.4322710049341734  0.5508673560799945  0.7643806810480178
  0.9174087961139276  0.2878492272619249  0.0434277117595339
  0.8112839125717870  0.4034759883928573  0.5888455425195396
  0.0597115870810782  0.9381578423846009  0.3576668229610146
  0.5974848088030550  0.7737514181848084  0.3883831675707310
  0.2877149295768133  0.0104268766153755  0.9647401199239484
  0.7164126463958063  0.9659869055156922  0.0426361129220200
  0.2092166503585361  0.6048172837137441  0.3792646351507590
  0.0952845910044881  0.7017642203756114  0.9174936202310544
  0.3676870009270425  0.2314375216822102  0.6284310040256040
  0.9482453088247188  0.0572227904722111  0.6450775983041215
  0.5837159347161471  0.4113147882195043  0.2546295031856411
  0.9772007419395379  0.3015995799182584  0.3180046026132675
  0.4348618355107079  0.8915116140119282  0.7110581049724775
  0.3711377827226279  1.0234341310101498  0.2327426302441249
  0.6657642603238036  0.5258243865134035  0.9059612244714534
  0.2390259540913600  0.3620268361774149  0.9449406637677746
  0.8567682921052266  0.7637007058811079  0.4674209450439353
  0.1642980558415274  0.2137903847584601  0.5028200388526094
  0.6263152043043745  0.9811009210114918  0.7502875369022454
  0.5664803791450815  0.1096175331105303  0.2762295557968021
  0.7555212929122370  0.6152752306990927  0.0587200711657507
  0.2933642505672114  0.4628155172683601  0.1206101490716170
  0.0230191025134837  0.6869156890276498  0.6652879783419485
 
             NaN             NaN             NaN
             NaN             NaN             NaN
             NaN             NaN             NaN
             NaN             NaN             NaN
             NaN             NaN             NaN
             NaN             NaN             NaN
             NaN             NaN             NaN
             NaN             NaN             NaN
             NaN             NaN             NaN
             NaN             NaN             NaN
             NaN             NaN             NaN
             NaN             NaN             NaN
             NaN             NaN             NaN
             NaN             NaN             NaN
             NaN             NaN             NaN
             NaN             NaN             NaN
             NaN             NaN             NaN
             NaN             NaN             NaN
             NaN             NaN             NaN
             NaN             NaN             NaN
             NaN             NaN             NaN
             NaN             NaN             NaN
             NaN             NaN             NaN
             NaN             NaN             NaN
             NaN             NaN             NaN
             NaN             NaN             NaN
             NaN             NaN             NaN
             NaN             NaN             NaN
             NaN             NaN             NaN
             NaN             NaN             NaN
             NaN             NaN             NaN
             NaN             NaN             NaN
             NaN             NaN             NaN
             NaN             NaN             NaN
             NaN             NaN             NaN
