Ca1 Co4 S6 O24                          
   1.00000000000000     
     7.4864740000000003    0.2063530000000000    4.6442389999999998
     2.6982629999999999    6.9736240000000000    4.6636210000000000
     0.3150980000000000    0.1911010000000000    8.7905890000000007
   Ca   Co   S    O 
     1     4     6    24
Direct
  0.3020273152307398  0.7310005506114891  0.5256135252520230
  0.6563585939146378  0.6372007862326619  0.6462647661664753
  0.1403680930601641  0.1623222136123329  0.1358270619751208
  0.8370545758710196  0.8490111992851006  0.8501433158643013
  0.3537074616207370  0.3423804766470230  0.3671618195566574
  0.9693778926822354  0.2419162691940619  0.5281202715397324
  0.4504525887876922  0.0360167237903073  0.7541727997391406
  0.5524057229539733  0.9673051744027746  0.2383216818154222
  0.7350568752680360  0.4669906968711414  0.0553630119082088
  0.2518832071548776  0.5281384319659184  0.9598170906029143
  0.0260700320600074  0.7488305895794348  0.4530490052929060
  0.4044221568850993  0.5969872560303430  0.7720435941974888
  0.9330694238980355  0.3177063316788150  0.0340173445332644
  0.7804718587581009  0.3613992598841976  0.6297571892499686
  0.0157789984784472  0.9510112414552451  0.3402715206254575
  0.6025601164107767  0.7651041641934365  0.3836299933414046
  0.3174504882419040  0.0080217241616819  0.9587407410667482
  0.6931738665828535  0.9814563594826810  0.0415329672909046
  0.2306257791097031  0.6203467952869098  0.3773876690085668
  0.0638110270163182  0.6830995425348231  0.9459063823741309
  0.3754955017247140  0.2374295940524219  0.6263809536797916
  1.0004371866476058  0.0295756292563747  0.6364616938185033
  0.5955783553567376  0.3908374707264597  0.2458830268600683
  0.9821307750362291  0.2983640049671840  0.3311270947907696
  0.4749953065630150  0.8963168734817561  0.6949590237499079
  0.3555425946087203  1.0045787545773712  0.2567386422714791
  0.6886056738342551  0.5104260983941640  0.8975949406218164
  0.2739648735615284  0.3519560795890401  0.9564571657064888
  0.8888669336873919  0.7106799054638309  0.4492915729061292
  0.1269883232189044  0.2688111165105688  0.5170353799145783
  0.6435376793207501  0.0056805327270508  0.7338695709060767
  0.5381966381514061  0.1032108406910880  0.2931199345589547
  0.7219390563576731  0.6428071287827093  0.0513398102374534
  0.2812115130177423  0.4943868710953624  0.1228668964359867
 -0.0037231945991170  0.7002718182232186  0.6574990864540181
 
             NaN             NaN             NaN
             NaN             NaN             NaN
             NaN             NaN             NaN
             NaN             NaN             NaN
             NaN             NaN             NaN
             NaN             NaN             NaN
             NaN             NaN             NaN
             NaN             NaN             NaN
             NaN             NaN             NaN
             NaN             NaN             NaN
             NaN             NaN             NaN
             NaN             NaN             NaN
             NaN             NaN             NaN
             NaN             NaN             NaN
             NaN             NaN             NaN
             NaN             NaN             NaN
             NaN             NaN             NaN
             NaN             NaN             NaN
             NaN             NaN             NaN
             NaN             NaN             NaN
             NaN             NaN             NaN
             NaN             NaN             NaN
             NaN             NaN             NaN
             NaN             NaN             NaN
             NaN             NaN             NaN
             NaN             NaN             NaN
             NaN             NaN             NaN
             NaN             NaN             NaN
             NaN             NaN             NaN
             NaN             NaN             NaN
             NaN             NaN             NaN
             NaN             NaN             NaN
             NaN             NaN             NaN
             NaN             NaN             NaN
             NaN             NaN             NaN
