Ca1 Co4 S6 O24                          
   1.00000000000000     
     7.4864740000000003    0.2063530000000000    4.6442389999999998
     2.6982629999999999    6.9736240000000000    4.6636210000000000
     0.3150980000000000    0.1911010000000000    8.7905890000000007
   Ca   Co   S    O 
     1     4     6    24
Direct
  0.3856589090730420  0.6381285399953143  0.5023292048278132
  0.6444463337397950  0.6422489585916226  0.6552441675715270
  0.1417356491147116  0.1520785139611517  0.1453515792017845
  0.8459444211073706  0.8490803093749528  0.8428520615588823
  0.3552686993516270  0.3451695004602904  0.3584431092818203
  0.9569864396665902  0.2436617696023280  0.5343139458921161
  0.4568542066696761  0.0368665618274069  0.7523013290528047
  0.5491991290661729  0.9638464841252397  0.2377532429845670
  0.7416055665062824  0.4649089951435984  0.0512142554033583
  0.2383691915428096  0.5425422171301987  0.9627120246984544
  0.0271425261783460  0.7538427737687011  0.4548106052565343
  0.3964913349627217  0.5969970658982330  0.7713376598288706
  0.9331462605449955  0.3105020647817226  0.0307227818393572
  0.7672653486975352  0.3829353549663964  0.6113819122182789
  0.0091697807739052  0.9508334754049996  0.3173490329863778
  0.6193287524210865  0.7644951256971229  0.3770596160419513
  0.3290752507905956  0.0133574132012799  0.9577767128131400
  0.6788391593447124  0.9828824337699604  0.0339473324721053
  0.2270176843727622  0.6169671940694047  0.3848785127427055
  0.0524190005986576  0.7053854457039331  0.9542996551454742
  0.3810489233342996  0.2378871666890577  0.6234899136145891
  0.9764228404327301  0.0396366597537473  0.6713551103691525
  0.5969141442654106  0.4097319806273664  0.2493115747063290
  0.9699787831122479  0.2699309531318163  0.3466469265183133
  0.4671851006694407  0.8982418458957264  0.7020664108332687
  0.3517826412304696  0.9826394507993106  0.2774891968338851
  0.6797575951730738  0.5044877510621326  0.9065973881418171
  0.2457931335241006  0.3673849948625162  0.9723881747956566
  0.8862804115508524  0.6956933842116013  0.4857158423450225
  0.1173344262539144  0.2767515560795744  0.5056431596433126
  0.6565103705327440  0.0056794917094797  0.7184945573436986
  0.5372635313189501  0.1080654217444367  0.2791089730305438
  0.7428017733282334  0.6451296155442366  0.0294049828258245
  0.2774036084869637  0.5114357497458679  0.1182243037468248
  0.0212037112551347  0.7263730309713438  0.6443145117702633
 
             NaN             NaN             NaN
             NaN             NaN             NaN
             NaN             NaN             NaN
             NaN             NaN             NaN
             NaN             NaN             NaN
             NaN             NaN             NaN
             NaN             NaN             NaN
             NaN             NaN             NaN
             NaN             NaN             NaN
             NaN             NaN             NaN
             NaN             NaN             NaN
             NaN             NaN             NaN
             NaN             NaN             NaN
             NaN             NaN             NaN
             NaN             NaN             NaN
             NaN             NaN             NaN
             NaN             NaN             NaN
             NaN             NaN             NaN
             NaN             NaN             NaN
             NaN             NaN             NaN
             NaN             NaN             NaN
             NaN             NaN             NaN
             NaN             NaN             NaN
             NaN             NaN             NaN
             NaN             NaN             NaN
             NaN             NaN             NaN
             NaN             NaN             NaN
             NaN             NaN             NaN
             NaN             NaN             NaN
             NaN             NaN             NaN
             NaN             NaN             NaN
             NaN             NaN             NaN
             NaN             NaN             NaN
             NaN             NaN             NaN
             NaN             NaN             NaN
