Fe6 S6 O18                              
   1.00000000000000     
     6.3653148453884985    3.6751170480123885    2.5958862139259580
    -6.3654035245235061    3.6749652890028868    2.5958858362819113
     0.0000889541319110   -7.3500806158981611    2.5958854979203423
   Fe   S    O 
     6     6    18
Direct
  0.8664471556902527  0.1859197496062066  0.6882727008410328
  0.1859197676102937  0.6882728373859592  0.8664471040854878
  0.6882727283001131  0.8664470622690175  0.1859197523111291
  0.1335541144714796  0.8140846571078697  0.3116562760998534
  0.8140846772535042  0.3116562504695182  0.1335542109355430
  0.3116563837215338  0.1335542912679202  0.8140846418641772
  0.8507236874073456  0.7065465654956853  0.5248374769828743
  0.7065465935902253  0.5248373506674113  0.8507236753141356
  0.5248373574605054  0.8507238479034172  0.7065465263128345
  0.1492696725316378  0.2934600409719152  0.4751880924253840
  0.2934600054740031  0.4751881605550281  0.1492697321806702
  0.4751881429710707  0.1492695281730434  0.2934600431595840
  0.9151710303894589  0.6149809420233296  0.3653532508921984
  0.6149809593252726  0.3653533182515929  0.9151711768011950
  0.3653532538679798  0.9151713387187073  0.6149811641028862
  0.0848078176441405  0.3850082017900576  0.6346941235712009
  0.3850082696789627  0.6346940834317749  0.0848078151943099
  0.6346941279949760  0.0848075788829945  0.3850079433746103
  0.8122007725741014  0.8720615598799029  0.4829570346385950
  0.8720614744550872  0.4829567889614523  0.8122005792892040
  0.4829569758675447  0.8122006282588288  0.8720614671349338
  0.1877914890736676  0.1279224295615151  0.5169979193359140
  0.1279224936966230  0.5169981476742294  0.1877916802946515
  0.5169979425609270  0.1877916259906272  0.1279225101258632
  0.0603029920422813  0.8412147653612081  0.7356703730904997
  0.8412147668967194  0.7356701571549848  0.0603029706898326
  0.7356702560239299  0.0603030803416686  0.8412147433534116
  0.9396679318410932  0.1588420184622947  0.2643949699326171
  0.1588420918106763  0.2643951690096884  0.9396679644499812
  0.2643950677746076  0.9396678243721439  0.1588420812153899
 
  0.00000000E+00  0.00000000E+00  0.00000000E+00
  0.00000000E+00  0.00000000E+00  0.00000000E+00
  0.00000000E+00  0.00000000E+00  0.00000000E+00
  0.00000000E+00  0.00000000E+00  0.00000000E+00
  0.00000000E+00  0.00000000E+00  0.00000000E+00
  0.00000000E+00  0.00000000E+00  0.00000000E+00
  0.00000000E+00  0.00000000E+00  0.00000000E+00
  0.00000000E+00  0.00000000E+00  0.00000000E+00
  0.00000000E+00  0.00000000E+00  0.00000000E+00
  0.00000000E+00  0.00000000E+00  0.00000000E+00
  0.00000000E+00  0.00000000E+00  0.00000000E+00
  0.00000000E+00  0.00000000E+00  0.00000000E+00
  0.00000000E+00  0.00000000E+00  0.00000000E+00
  0.00000000E+00  0.00000000E+00  0.00000000E+00
  0.00000000E+00  0.00000000E+00  0.00000000E+00
  0.00000000E+00  0.00000000E+00  0.00000000E+00
  0.00000000E+00  0.00000000E+00  0.00000000E+00
  0.00000000E+00  0.00000000E+00  0.00000000E+00
  0.00000000E+00  0.00000000E+00  0.00000000E+00
  0.00000000E+00  0.00000000E+00  0.00000000E+00
  0.00000000E+00  0.00000000E+00  0.00000000E+00
  0.00000000E+00  0.00000000E+00  0.00000000E+00
  0.00000000E+00  0.00000000E+00  0.00000000E+00
  0.00000000E+00  0.00000000E+00  0.00000000E+00
  0.00000000E+00  0.00000000E+00  0.00000000E+00
  0.00000000E+00  0.00000000E+00  0.00000000E+00
  0.00000000E+00  0.00000000E+00  0.00000000E+00
  0.00000000E+00  0.00000000E+00  0.00000000E+00
  0.00000000E+00  0.00000000E+00  0.00000000E+00
  0.00000000E+00  0.00000000E+00  0.00000000E+00
