Cr4 P4                                  
   1.00000000000000     
     5.3878846547131563    0.0000005190175220    0.0000614847265118
     0.0000002910587372    3.0132196631409309    0.0000000652722482
     0.0000682925633661    0.0000001330605145    5.9957158892343738
   Cr   P 
     4     4
Direct
  0.5021675225186980  0.2499999940542651  0.3045059960081636
  0.0021658888009298  0.2500000268848913  0.1954965843997841
  0.4978348388547240  0.7499999898515253  0.6954770084426343
  0.9978400265885936  0.7499999777823867  0.8045195799679298
  0.6895991510292870  0.2500000005841071  0.9359289518804446
  0.1895981300794901  0.2499999979780712  0.5640778402494979
  0.3103996546963936  0.7500000066018970  0.0640982884710627
  0.8103947874318836  0.7500000062628633  0.4358957505804829
 
  0.00000000E+00  0.00000000E+00  0.00000000E+00
  0.00000000E+00  0.00000000E+00  0.00000000E+00
  0.00000000E+00  0.00000000E+00  0.00000000E+00
  0.00000000E+00  0.00000000E+00  0.00000000E+00
  0.00000000E+00  0.00000000E+00  0.00000000E+00
  0.00000000E+00  0.00000000E+00  0.00000000E+00
  0.00000000E+00  0.00000000E+00  0.00000000E+00
  0.00000000E+00  0.00000000E+00  0.00000000E+00
