Ca4 Co4 P6 O24
1.0
2.570645 7.181830 4.315225
0.041531 -0.068839 8.697713
7.665267 -0.026364 4.258263
Ca Co P O
4 4 6 24
direct
0.246115 0.883192 0.594341 Ca
0.963229 1.005073 0.022311 Ca
0.401114 0.745837 0.111409 Ca
0.150684 0.402479 0.742259 Ca
0.647794 0.625350 0.632485 Co
0.137699 0.155269 0.156851 Co
0.838711 0.857384 0.853494 Co
0.362249 0.345234 0.351327 Co
0.248964 0.553911 0.953473 P
0.034876 0.752659 0.450097 P
0.959515 0.252661 0.557341 P
0.448713 0.033378 0.740923 P
0.536803 0.950414 0.246664 P
0.749539 0.455631 0.030350 P
0.558524 0.772711 0.413654 O
0.258224 0.062533 0.905962 O
0.402488 0.575124 0.760982 O
0.923741 0.281299 0.038983 O
0.779869 0.413885 0.557601 O
0.065541 0.913988 0.265510 O
0.930938 0.082362 0.737416 O
0.586050 0.432726 0.209961 O
0.713812 0.944526 0.081469 O
0.221767 0.589444 0.420505 O
0.089578 0.743685 0.922003 O
0.434295 0.220631 0.586342 O
0.193571 0.393447 0.991864 O
0.868279 0.711981 0.491551 O
0.038158 0.179627 0.398876 O
0.461097 0.874912 0.699123 O
0.376997 0.959923 0.209978 O
0.704580 0.491361 0.866290 O
0.298567 0.531738 0.108061 O
0.024496 0.781825 0.616137 O
0.110839 0.295498 0.556840 O
0.599096 -0.030047 0.816074 O
0.469874 0.119041 0.303186 O
0.791006 0.622162 0.999639 O
