Ca1 Fe4 S6 O24                          
   1.00000000000000     
     7.5877460000000001    0.1642460000000000    4.5226600000000001
     2.6407389999999999    7.1103079999999999    4.5476140000000003
     0.2324860000000000    0.1927630000000000    8.8358580000000000
   Ca   Fe   S    O 
     1     4     6    24
Direct
  0.2586169364211855  0.8022230085498198  0.5631803929743474
  0.6598349779343917  0.6369417269437662  0.6453786542687143
  0.1411505357537017  0.1540941829135529  0.1320039544068879
  0.8321506163957150  0.8431197358708924  0.8586329652021715
  0.3580551596637873  0.3470491091880981  0.3587606809314835
  0.9647174108020705  0.2501820925768945  0.5214049867656422
  0.4476092889495040  0.0302780002725186  0.7521244290612026
  0.5506442204909502  0.9675859643421636  0.2401886680027307
  0.7433073942496826  0.4557646505016113  0.0548211380098638
  0.2560841550518508  0.5290948076313718  0.9520005426004324
  0.0384937511025024  0.7397355931653340  0.4590333184886674
  0.4200949515027828  0.5690263485503801  0.7729359608711621
  0.9237815935562209  0.2943587646923106  0.0414963783585702
  0.7877401504815251  0.3811102955432718  0.6074924785772672
  0.0380266314331894  0.9354350873279813  0.3413609985761962
  0.5850656024591067  0.7768250893430024  0.3955016652559276
  0.3104086101284874  0.0114645751193153  0.9481669675537179
  0.6959403402067800  0.9636985254185609  0.0557723237246303
  0.2288160352825723  0.6077245710607524  0.3907315738776538
  0.0901176811147874  0.7046096936232741  0.9161469149502596
  0.3837035142932601  0.2236666043043095  0.6198165309363430
  0.9738823210105190  0.0483526412458997  0.6476308439855882
  0.5964442416279325  0.4003309748904181  0.2378103682230708
  0.9776235088002317  0.2854428853628606  0.3335119269023899
  0.4661777096899992  0.8887756047353234  0.6968616916875618
  0.3590387121373903  0.0089644592317988  0.2477183533678402
  0.6884533799825779  0.5143030479059716  0.8969119486485032
  0.2403442118073743  0.3679602421676746  0.9621494395119750
  0.8905840042975637  0.7109152962293395  0.4604942996341349
  0.1304044835292222  0.2664139490745955  0.5054747318214899
  0.6352904274613186  0.9928953122952969  0.7432379896090270
  0.5394087210830597  0.1094364767639579  0.2851166620479160
  0.7617156761720416  0.6159373762201656  0.0466930573752114
  0.2836627301977671  0.4938906821846782  0.1164313402408602
  0.0085966009561003  0.7055017516820883  0.6562411067531537
 
             NaN             NaN             NaN
             NaN             NaN             NaN
             NaN             NaN             NaN
             NaN             NaN             NaN
             NaN             NaN             NaN
             NaN             NaN             NaN
             NaN             NaN             NaN
             NaN             NaN             NaN
             NaN             NaN             NaN
             NaN             NaN             NaN
             NaN             NaN             NaN
             NaN             NaN             NaN
             NaN             NaN             NaN
             NaN             NaN             NaN
             NaN             NaN             NaN
             NaN             NaN             NaN
             NaN             NaN             NaN
             NaN             NaN             NaN
             NaN             NaN             NaN
             NaN             NaN             NaN
             NaN             NaN             NaN
             NaN             NaN             NaN
             NaN             NaN             NaN
             NaN             NaN             NaN
             NaN             NaN             NaN
             NaN             NaN             NaN
             NaN             NaN             NaN
             NaN             NaN             NaN
             NaN             NaN             NaN
             NaN             NaN             NaN
             NaN             NaN             NaN
             NaN             NaN             NaN
             NaN             NaN             NaN
             NaN             NaN             NaN
             NaN             NaN             NaN
