Ca2 Co2 P4 O14                          
   1.00000000000000     
     6.4334581873262850   -0.0137722399037178    0.7352631133258309
    -0.0419941570434389    5.9170616606436210    2.6064615050031197
     0.0151542978364475   -0.0059057108663422    6.5296208320840021
   Ca   Co   P    O 
     2     2     4    14
Direct
  0.8754205528343825  0.2036943289848195  0.2610817350239041
  0.1246060190069517  0.7963260125878066  0.7389334946852274
  0.6475139604867428  0.7761326331143303  0.1012900757136777
  0.3526704452172665  0.2238574501048645  0.8986658005547403
  0.3740879284190894  0.3227018469375715  0.3633270724688086
  0.6259030503172307  0.6772769550026748  0.6366613563178027
  0.8612803642743212  0.2569487642213683  0.7669439742056029
  0.1387154684881463  0.7430829683067386  0.2330808477927621
  0.9431164311527268  0.1377199616736121  0.6210178770710904
  0.0568456034084758  0.8622790034646405  0.3790144787259710
  0.6831304959016733  0.1321759935368148  0.9487078387496662
  0.3167594207673364  0.8679560007606598  0.0512274782209221
  0.2672894634932449  0.2538133387906750  0.2069096052187703
  0.7327221712671075  0.7462294294952493  0.7930305896925449
  0.6199841451338501  0.8515466936335540  0.3984843347760439
  0.3799728335965932  0.1484123001122337  0.6015110631084966
  0.4152992673044320  0.5657278207880077  0.7468677463762702
  0.5847095834795579  0.4341766328011005  0.2531740756612939
  0.0283505912647659  0.3156717675913087  0.8820616687934726
  0.9716362503145309  0.6842688253121104  0.1180153442075658
  0.2313291598680648  0.5176166416329070  0.3994299556852812
  0.7686567940035023  0.4823846311469601  0.6005635869500771
 
  0.00000000E+00  0.00000000E+00  0.00000000E+00
  0.00000000E+00  0.00000000E+00  0.00000000E+00
  0.00000000E+00  0.00000000E+00  0.00000000E+00
  0.00000000E+00  0.00000000E+00  0.00000000E+00
  0.00000000E+00  0.00000000E+00  0.00000000E+00
  0.00000000E+00  0.00000000E+00  0.00000000E+00
  0.00000000E+00  0.00000000E+00  0.00000000E+00
  0.00000000E+00  0.00000000E+00  0.00000000E+00
  0.00000000E+00  0.00000000E+00  0.00000000E+00
  0.00000000E+00  0.00000000E+00  0.00000000E+00
  0.00000000E+00  0.00000000E+00  0.00000000E+00
  0.00000000E+00  0.00000000E+00  0.00000000E+00
  0.00000000E+00  0.00000000E+00  0.00000000E+00
  0.00000000E+00  0.00000000E+00  0.00000000E+00
  0.00000000E+00  0.00000000E+00  0.00000000E+00
  0.00000000E+00  0.00000000E+00  0.00000000E+00
  0.00000000E+00  0.00000000E+00  0.00000000E+00
  0.00000000E+00  0.00000000E+00  0.00000000E+00
  0.00000000E+00  0.00000000E+00  0.00000000E+00
  0.00000000E+00  0.00000000E+00  0.00000000E+00
  0.00000000E+00  0.00000000E+00  0.00000000E+00
  0.00000000E+00  0.00000000E+00  0.00000000E+00
