Ca1 Co4 S6 O24                          
   1.00000000000000     
     7.5536919999999999    0.0978840000000000    4.4963430000000004
     2.6224630000000002    7.0489530000000000    4.4945789999999999
     0.2004110000000000    0.1006900000000000    8.7690979999999996
   Ca   Co   S    O 
     1     4     6    24
Direct
  0.2526381177437499  0.8744168152307291  0.6079808053308726
  0.6528271637092661  0.6338842194521488  0.6544784769998288
  0.1441400760040139  0.1391999605014967  0.1391792350559254
  0.8438829534077545  0.8372720665568100  0.8473642451069849
  0.3656576096859007  0.3432735759882437  0.3494692282893239
  0.9578782222003505  0.2507139306658545  0.5210620323766145
  0.4539825529704188  0.0291825886530796  0.7465611881557265
  0.5481383700310973  0.9589044001357842  0.2407831109163271
  0.7509252244333323  0.4411931627667233  0.0475042124820585
  0.2515630735782969  0.5270469718193185  0.9546146057665895
  0.0508550394341306  0.7417128591096198  0.4547733272768916
  0.4149000032026198  0.5617876541942476  0.7718246120338423
  0.9236183200241708  0.2722820583799817  0.0436927513145796
  0.8016699430423040  0.4171825553381866  0.5610443698323420
  0.0524908953684412  0.9189513715151961  0.2910908354250352
  0.5880099348664086  0.7763364910372678  0.3992240537172193
  0.3218508076017278  0.0206653594266147  0.9423514184013454
  0.6850481659493162  0.9477335488892915  0.0549250832055284
  0.2226897224871345  0.5833536757919677  0.4077573671918148
  0.0874775572404992  0.7095653474954162  0.9288995035006888
  0.3941793115134004  0.2176630969523001  0.6095297570174151
  0.9320639253434391  0.0752643965175050  0.6874046806842238
  0.5963286894679223  0.4045723328213520  0.2326627788574111
  0.9696110835385472  0.2450059474111844  0.3511846749588879
  0.4511207485449324  0.8833635356806231  0.7083351641273576
  0.3515913395163706 -0.0019839277137364  0.2621398359893393
  0.6894224746932933  0.4880088219814567  0.8968407674912914
  0.2165970292102747  0.3729122750020237  0.9724585671149172
  0.8794245991886784  0.7077296545871675  0.5159979001426409
  0.1450201120570653  0.2406325155721401  0.4935295989980136
  0.6477172411932464  0.9789230449776424  0.7293612870190453
  0.5449636443877176  0.1089400176249766  0.2719844136100978
  0.7850984619146478  0.6018182375068449  0.0200867716574232
  0.2911587574254577  0.4884129492806976  0.1142933723138614
  0.0515349906117797  0.7591151840168057  0.6158593939719056
 
             NaN             NaN             NaN
             NaN             NaN             NaN
             NaN             NaN             NaN
             NaN             NaN             NaN
             NaN             NaN             NaN
             NaN             NaN             NaN
             NaN             NaN             NaN
             NaN             NaN             NaN
             NaN             NaN             NaN
             NaN             NaN             NaN
             NaN             NaN             NaN
             NaN             NaN             NaN
             NaN             NaN             NaN
             NaN             NaN             NaN
             NaN             NaN             NaN
             NaN             NaN             NaN
             NaN             NaN             NaN
             NaN             NaN             NaN
             NaN             NaN             NaN
             NaN             NaN             NaN
             NaN             NaN             NaN
             NaN             NaN             NaN
             NaN             NaN             NaN
             NaN             NaN             NaN
             NaN             NaN             NaN
             NaN             NaN             NaN
             NaN             NaN             NaN
             NaN             NaN             NaN
             NaN             NaN             NaN
             NaN             NaN             NaN
             NaN             NaN             NaN
             NaN             NaN             NaN
             NaN             NaN             NaN
             NaN             NaN             NaN
             NaN             NaN             NaN
