Ca1 Co4 S6 O24                          
   1.00000000000000     
     7.5536919999999999    0.0978840000000000    4.4963430000000004
     2.6224630000000002    7.0489530000000000    4.4945789999999999
     0.2004110000000000    0.1006900000000000    8.7690979999999996
   Ca   Co   S    O 
     1     4     6    24
Direct
  0.2550436922564134  0.8657078171493757  0.6022428893821901
  0.6525294502820258  0.6352731083741309  0.6539945795993302
  0.1429315225369840  0.1419150251732064  0.1396036701419743
  0.8394368176975927  0.8433150350984236  0.8494598799537466
  0.3628975310893396  0.3470845164235188  0.3507800948418023
  0.9588092720882392  0.2500228083809123  0.5233882330411116
  0.4490077943733705  0.0325599363969456  0.7465030978909455
  0.5488653131610898  0.9631090232965885  0.2396999548247645
  0.7466746028883038  0.4487082326911873  0.0502420255352455
  0.2520779688682079  0.5304682201916499  0.9569898002849393
  0.0443321032621690  0.7451262179974842  0.4545504451063043
  0.4164025164096596  0.5616043673251200  0.7735165843302909
  0.9190755988872250  0.2797876177250583  0.0496504120895765
  0.8000502286414507  0.4131393557273835  0.5687838663181833
  0.0572420191760353  0.9185345693151231  0.2887589689722908
  0.5893950950316004  0.7780510983676127  0.3955574610205146
  0.3148965199980170  0.0254416145116878  0.9415102032858125
  0.6876512149548704  0.9564980194570629  0.0527033687668299
  0.2132201885571116  0.5809449494638158  0.4176118215049330
  0.0881772332440481  0.7109809990435222  0.9264291067027082
  0.3905834994358886  0.2220556159981707  0.6096051149699903
  0.9398903940820564  0.0719841429830581  0.6892441022179555
  0.5895022817903505  0.4113421640507641  0.2334001240045986
  0.9663453210196240  0.2431625605869208  0.3562451381075989
  0.4470986780136500  0.8879208040895022  0.7061788392904941
  0.3537283892430288  1.0010617890090752  0.2584056645478851
  0.6911919532689712  0.4952984343783252  0.8957463358930240
  0.2198298858753351  0.3716521750212066  0.9815015931602952
  0.8715871781010410  0.7196575711893128  0.5045172190890449
  0.1456498076802436  0.2455795129895482  0.4891716287294007
  0.6417291413464571  0.9824963012520999  0.7322828880589396
  0.5428597105869761  0.1117287140367894  0.2750257991490752
  0.7768424801481049  0.6095178734687619  0.0276285155019159
  0.2900555960143835  0.5012200106298901  0.1137564235088792
  0.0389917960320071  0.7621825841020230  0.6189366458217702
 
             NaN             NaN             NaN
             NaN             NaN             NaN
             NaN             NaN             NaN
             NaN             NaN             NaN
             NaN             NaN             NaN
             NaN             NaN             NaN
             NaN             NaN             NaN
             NaN             NaN             NaN
             NaN             NaN             NaN
             NaN             NaN             NaN
             NaN             NaN             NaN
             NaN             NaN             NaN
             NaN             NaN             NaN
             NaN             NaN             NaN
             NaN             NaN             NaN
             NaN             NaN             NaN
             NaN             NaN             NaN
             NaN             NaN             NaN
             NaN             NaN             NaN
             NaN             NaN             NaN
             NaN             NaN             NaN
             NaN             NaN             NaN
             NaN             NaN             NaN
             NaN             NaN             NaN
             NaN             NaN             NaN
             NaN             NaN             NaN
             NaN             NaN             NaN
             NaN             NaN             NaN
             NaN             NaN             NaN
             NaN             NaN             NaN
             NaN             NaN             NaN
             NaN             NaN             NaN
             NaN             NaN             NaN
             NaN             NaN             NaN
             NaN             NaN             NaN
