Ca19 V16 P24 O96                        
   1.00000000000000     
    -5.1898650000000002    7.3541559999999997    8.8804979999999993
     5.1003879999999997   -7.2830760000000003    8.7564689999999992
    10.2881020000000003    7.3489589999999998   -0.1576330000000000
   Ca   V    P    O 
    19    16    24    96
Direct
  0.5372654146766385  0.6812162423316043  0.4138148209808790
  0.5050194104273338  0.9799639062395027  0.0161700074557875
 -0.0079856961189912  0.9749981824516042  0.5286283609447018
  0.0014201359204405  0.4803198746835535  0.0178185092155655
  0.4813652296076728  0.0103224860434632  0.4907514579214910
  0.4781222876483289  0.5214169714304121  0.9871611246123719
  0.9759019055520211  0.5181390059109615  0.4893176577607152
  0.9783916000903550  0.0138845902558965  0.9953647606086287
  0.5700775967940600  0.4229425180193461  0.2475596976778617
  0.5673614346708952  0.9167263057411437  0.7392691643428719
  0.0737417286733416  0.9170173921636876  0.2459916634288393
  0.0687296324128016  0.4128361264274320  0.7361645218195187
  0.2638098052719960  0.5717204788813287  0.4383367139339885
  0.2579199744423291  0.0829867347858680  0.9288536969412248
  0.7457307994074391  0.0762265168966888  0.4194750838506758
  0.7522828187475078  0.5772512343789065  0.9248882969304816
  0.5798263302573509  0.2542547915875634  0.9199887977161439
  0.0750623400019229  0.2460976286206365  0.4207130365633205
  0.0753716579372558  0.7477109553733290  0.9190326357048056
  0.6434640886908515  0.6380678987735099  0.6509100653772890
  0.6431098276617775  0.1343251105467710  0.1462014410150457
  0.1454766871086918  0.1390567387083363  0.6426792940453346
  0.1444367680588365  0.6397643638542502  0.1385711474424641
  0.1455289381087198  0.1478296114810902  0.1457284358353088
  0.1440412822668721  0.6467913560573501  0.6454313802817416
  0.6479144994882695  0.6470979683457003  0.1501748886124114
  0.6452381487480829  0.1476887102076829  0.6464511518584606
  0.8573502700832485  0.8607237713736596  0.8433145113014300
  0.8518403445061158  0.3513014444664130  0.3506920160431211
  0.3543960701474280  0.3558593335263971  0.8465963419802817
  0.3492781696543219  0.8570525077240493  0.3506480535744683
  0.3529439839264827  0.3479844577667929  0.3535654091976444
  0.3501930594603073  0.8498703677745223  0.8533814890333649
  0.8512436182053874  0.8471477173439785  0.3450396365988012
  0.8499820382661297  0.3493517367111802  0.8507065078216179
  0.4004450159383099  0.7500854504779111  0.5990148310062473
  0.4029258717594830  0.2499452393452064  0.0941785783651124
  0.8996088409075120  0.2453990841201965  0.5943190597785044
  0.9010583149044763  0.7507807003657810  0.0925364021073230
  0.3913836802934057  0.5957772611441040  0.2372957124313233
  0.4033542528251248  0.1017172111117196  0.7548746109155063
  0.9022021056289584  0.1002240643279079  0.2539261160930932
  0.9020822584381830  0.6020326799336458  0.7548364192906504
  0.6062880001116058  0.4056090314493971  0.7546859649258801
  0.6011345263439297  0.8962028031700106  0.2614184231622175
  0.1097213246101927  0.9050046513660942  0.7618472150352666
  0.1056181863596210  0.4054521704276282  0.2600711608894297
  0.2407315479758415  0.3917866836097346  0.5929233257502675
  0.2414539569640894  0.8943692513481135  0.0941430263030638
  0.7525246786486205  0.8981478071260233  0.6012677907108517
  0.7422158177594628  0.3948099964337703  0.0963086522886236
  0.7497911536430273  0.5978037075908536  0.3946464122027259
  0.7366571307562294  0.0920610908481861  0.8900638186343003
  0.2357991859021880  0.0923279729950381  0.3926673003396779
  0.2338982825108040  0.5908780262147969  0.8880681677041639
  0.5971778276612167  0.2382701217228261  0.3928806764806810
  0.6009417599386969  0.7445149857648606  0.8937161214874684
  0.1041277303126466  0.7510459948043191  0.3952454652762315
  0.1025687024811911  0.2465624908696582  0.8931196381061108
  0.6863077397387735  0.6230119180880020  0.4947173121152414
  0.6575727029135592  0.0820760131339711  0.9831271141325272
  0.1547640274030863  0.0787507039946859  0.4839004040291271
  0.1538157322299929  0.5803258179524446  0.9806615483814745
  0.1593091843778296  0.4869602884906353  0.5783127608115727
  0.1612317599117696  0.9880197176322246  0.0774799665521880
  0.6686887475947118  0.9891595684566218  0.5824941107896627
  0.6616554067517727  0.4882916529091784  0.0782246674167325
  0.4920076868920459  0.6703589369206615  0.5894136609349746
  0.4898136190063496  0.1641829429230033  0.0744615454925854
  0.9881436980365570  0.1609446853539830  0.5773437091053587
  0.9886655362918900  0.6658532560436401  0.0749432909140726
  0.5866745723391694  0.1658078233281324  0.4909401369420741
  0.5973031438169596  0.6727770234978605  0.9918591353747233
  0.0956043206449615  0.6623065327615039  0.4787230274892266
  0.0895944230034379  0.1624494522078403  0.9808102111255493
  0.6042256631240385  0.4835821066778710  0.6660077052640428
  0.5945294576245296  0.9711257033388699  0.1667756619164120
  0.0994053166398088  0.9813933567807278  0.6706225076787544
  0.0905198640046534  0.4840562298608338  0.1708601198172738
  0.4893878625842273  0.5838195583445417  0.1655309456199644
  0.4856273090925212  0.0782854650483764  0.6682353631740172
  0.9870555244365534  0.0780333287680875  0.1694870530537058
  0.9819005373976815  0.5802018764117912  0.6654837297273595
  0.5098208010294979  0.4172773613260396  0.8315347645880815
  0.5067195449691692  0.9140209321055963  0.3359395604300582
  0.0162312071009752  0.9172884364418820  0.8402627299539511
  0.0119278920272684  0.4145056944304640  0.3394241174895910
  0.5144722967698612  0.3251342477874628  0.3907032952908587
  0.5133539232320699  0.8293311405333917  0.9001038949137085
  0.0120812516153747  0.8313399989871860  0.4057698887170937
  0.0184384369075774  0.3347117343544453  0.9039202200801303
  0.8153698983518569  0.4984238711446397  0.4119030212502642
  0.8274537981983303  0.0152735318213344  0.9030318885939381
  0.3266573656626575  0.0152314269919571  0.4036851080905143
  0.3231305528316713  0.5121669175008338  0.8997555928692579
  0.4098287205460481  0.5084694157446061  0.3233233557678009
  0.4181140459665486  0.0097117125666497  0.8381489798686248
  0.9145776377671707  0.0093041616456333  0.3380221610349187
  0.9189126040535581  0.5101423208269363  0.8373999867938682
  0.4178257645342833  0.8254960205711183  0.5029322937473528
  0.4225292654412663  0.3336483568674784  0.0050724564547291
  0.9208453707185030  0.3284976769828754  0.5056354214904268
  0.9182562812026679  0.8313082031462623  0.0013217641782547
  0.3235727214138329  0.4080364665770055  0.5084240971194586
  0.3307210441927717  0.9140535824004996  0.0141352538630231
  0.8195897710740296  0.8985965660669103  0.4999799865102262
  0.8282865015386466  0.4118593710641431  0.0116628322497951
  0.2968635607883535  0.6865436127025367  0.5876813244384524
  0.2974304917298740  0.1895100263442888  0.0828556520951774
  0.7953637844004876  0.1842266725250995  0.5799457380889621
  0.7961574308983471  0.6900641089237863  0.0827973014191139
  0.7888415053294895  0.6002599983679375  0.7190502439597376
  0.7922354581226086  0.0988298488286478  0.2091414076321874
  0.2917697631103669  0.1021024465296124  0.7141081353655893
  0.2936545911057130  0.5852105624071264  0.1713179146363432
  0.1076186268008060  0.2902061941827624  0.2213066721162109
  0.1107579289877591  0.7891616006959721  0.7249790132894468
  0.5971886796213937  0.7793687676257733  0.2274041868711218
  0.6088597204650423  0.2883431132942482  0.7212774566658270
  0.6810217037929196  0.8021029565806275  0.6261323289629116
  0.6737894521933671  0.2932714499032089  0.0825274970804973
  0.1664044030898860  0.2932941571428293  0.5786327804762587
  0.1737146075133897  0.7937056199344549  0.0729497637252567
  0.6621931239244396  0.5785846276427292  0.3082630481330709
  0.6689616236292757  0.0661288316037534  0.7913633811134277
  0.1677862004614371  0.0718653905419387  0.2927239900106501
  0.1636064629704474  0.5687007132621361  0.7903892906368818
  0.5849388400128245  0.6666505144583802  0.8011577407232500
  0.5893050818117267  0.1584424215015692  0.2996996131627019
  0.0888323264549822  0.1927382044949012  0.7859055253427851
  0.1016705717789394  0.7008663989983152  0.2853525177540066
  0.4168855079607812  0.3102993643659681  0.1988113990325022
  0.4083779525904950  0.8198096011737515  0.6991380986181447
  0.9169911769927831  0.8164784143645866  0.1943481860617254
  0.9108334106702600  0.3080451879193306  0.6985554374960083
  0.3889561823470640  0.6969460049050418  0.3090265734867055
  0.4243569082976307  0.2028739055026663  0.8221425993034428
  0.9223381554262646  0.2028092022427349  0.3187775196106130
  0.9237413964158349  0.7047866965640179  0.8189512502938612
  0.2044691672417855  0.4297816230832605  0.3276934923815649
  0.2064365392876020  0.9285491165284014  0.8328791844514002
  0.7020331319887689  0.9201271476971600  0.3258587825811620
  0.7003639038481074  0.4226811798913054  0.8345182622408179
  0.8301350780380633  0.9211894352957662  0.6908471554211234
  0.7859426163643851  0.4023220556371214  0.2068463190282224
  0.2797267697024857  0.3928578119637191  0.7053657826378067
  0.2792383323663740  0.8950204353027219  0.2068891847423624
  0.2725372617313286  0.2083901598345152  0.3934510849112591
  0.2729637073996979  0.7060740355105505  0.8877058322848975
  0.8223851669323593  0.6893541865547014  0.3658288306115917
  0.7729115285174202  0.2080680612592712  0.8879627639047959
  0.7080824828037408  0.2869830781513961  0.3914029612170678
  0.7050358015709339  0.8048695870196934  0.8824180620888767
  0.2050727231055547  0.8159095508352222  0.4108828797092629
  0.2127392471471611  0.2948610119832311  0.9030414748224785
 
             NaN             NaN             NaN
             NaN             NaN             NaN
             NaN             NaN             NaN
             NaN             NaN             NaN
             NaN             NaN             NaN
             NaN             NaN             NaN
             NaN             NaN             NaN
             NaN             NaN             NaN
             NaN             NaN             NaN
             NaN             NaN             NaN
             NaN             NaN             NaN
             NaN             NaN             NaN
             NaN             NaN             NaN
             NaN             NaN             NaN
             NaN             NaN             NaN
             NaN             NaN             NaN
             NaN             NaN             NaN
             NaN             NaN             NaN
             NaN             NaN             NaN
             NaN             NaN             NaN
             NaN             NaN             NaN
             NaN             NaN             NaN
             NaN             NaN             NaN
             NaN             NaN             NaN
             NaN             NaN             NaN
             NaN             NaN             NaN
             NaN             NaN             NaN
             NaN             NaN             NaN
             NaN             NaN             NaN
             NaN             NaN             NaN
             NaN             NaN             NaN
             NaN             NaN             NaN
             NaN             NaN             NaN
             NaN             NaN             NaN
             NaN             NaN             NaN
             NaN             NaN             NaN
             NaN             NaN             NaN
             NaN             NaN             NaN
             NaN             NaN             NaN
             NaN             NaN             NaN
             NaN             NaN             NaN
             NaN             NaN             NaN
             NaN             NaN             NaN
             NaN             NaN             NaN
             NaN             NaN             NaN
             NaN             NaN             NaN
             NaN             NaN             NaN
             NaN             NaN             NaN
             NaN             NaN             NaN
             NaN             NaN             NaN
             NaN             NaN             NaN
             NaN             NaN             NaN
             NaN             NaN             NaN
             NaN             NaN             NaN
             NaN             NaN             NaN
             NaN             NaN             NaN
             NaN             NaN             NaN
             NaN             NaN             NaN
             NaN             NaN             NaN
             NaN             NaN             NaN
             NaN             NaN             NaN
             NaN             NaN             NaN
             NaN             NaN             NaN
             NaN             NaN             NaN
             NaN             NaN             NaN
             NaN             NaN             NaN
             NaN             NaN             NaN
             NaN             NaN             NaN
             NaN             NaN             NaN
             NaN             NaN             NaN
             NaN             NaN             NaN
             NaN             NaN             NaN
             NaN             NaN             NaN
             NaN             NaN             NaN
             NaN             NaN             NaN
             NaN             NaN             NaN
             NaN             NaN             NaN
             NaN             NaN             NaN
             NaN             NaN             NaN
             NaN             NaN             NaN
             NaN             NaN             NaN
             NaN             NaN             NaN
             NaN             NaN             NaN
             NaN             NaN             NaN
             NaN             NaN             NaN
             NaN             NaN             NaN
             NaN             NaN             NaN
             NaN             NaN             NaN
             NaN             NaN             NaN
             NaN             NaN             NaN
             NaN             NaN             NaN
             NaN             NaN             NaN
             NaN             NaN             NaN
             NaN             NaN             NaN
             NaN             NaN             NaN
             NaN             NaN             NaN
             NaN             NaN             NaN
             NaN             NaN             NaN
             NaN             NaN             NaN
             NaN             NaN             NaN
             NaN             NaN             NaN
             NaN             NaN             NaN
             NaN             NaN             NaN
             NaN             NaN             NaN
             NaN             NaN             NaN
             NaN             NaN             NaN
             NaN             NaN             NaN
             NaN             NaN             NaN
             NaN             NaN             NaN
             NaN             NaN             NaN
             NaN             NaN             NaN
             NaN             NaN             NaN
             NaN             NaN             NaN
             NaN             NaN             NaN
             NaN             NaN             NaN
             NaN             NaN             NaN
             NaN             NaN             NaN
             NaN             NaN             NaN
             NaN             NaN             NaN
             NaN             NaN             NaN
             NaN             NaN             NaN
             NaN             NaN             NaN
             NaN             NaN             NaN
             NaN             NaN             NaN
             NaN             NaN             NaN
             NaN             NaN             NaN
             NaN             NaN             NaN
             NaN             NaN             NaN
             NaN             NaN             NaN
             NaN             NaN             NaN
             NaN             NaN             NaN
             NaN             NaN             NaN
             NaN             NaN             NaN
             NaN             NaN             NaN
             NaN             NaN             NaN
             NaN             NaN             NaN
             NaN             NaN             NaN
             NaN             NaN             NaN
             NaN             NaN             NaN
             NaN             NaN             NaN
             NaN             NaN             NaN
             NaN             NaN             NaN
             NaN             NaN             NaN
             NaN             NaN             NaN
             NaN             NaN             NaN
             NaN             NaN             NaN
             NaN             NaN             NaN
             NaN             NaN             NaN
             NaN             NaN             NaN
             NaN             NaN             NaN
             NaN             NaN             NaN
             NaN             NaN             NaN
             NaN             NaN             NaN
             NaN             NaN             NaN
             NaN             NaN             NaN
