Ca19 V16 P24 O96
1.0
-5.189865 7.354156 8.880498
5.100388 -7.283076 8.756469
10.288102 7.348959 -0.157633
Ca V P O
19 16 24 96
direct
0.541776 0.644356 0.453658 Ca
0.504722 0.979201 0.019025 Ca
0.002577 0.976400 0.519004 Ca
0.001860 0.479685 0.018213 Ca
0.483530 0.012944 0.490178 Ca
0.474117 0.515853 0.997195 Ca
0.980784 0.519672 0.488269 Ca
0.978318 0.015374 0.993664 Ca
0.573087 0.426324 0.256575 Ca
0.569982 0.915249 0.739195 Ca
0.073806 0.914969 0.243296 Ca
0.068458 0.415090 0.737056 Ca
0.273799 0.575560 0.440861 Ca
0.256352 0.082227 0.925951 Ca
0.751085 0.076991 0.423283 Ca
0.754321 0.577667 0.926004 Ca
0.577944 0.250896 0.920585 Ca
0.074591 0.246975 0.420199 Ca
0.074961 0.746994 0.918443 Ca
0.640815 0.637632 0.640996 V
0.645900 0.137729 0.145711 V
0.145948 0.138791 0.642528 V
0.147743 0.639673 0.138744 V
0.146717 0.147815 0.145916 V
0.145175 0.647176 0.644965 V
0.647448 0.648145 0.146270 V
0.645388 0.148645 0.647254 V
0.854280 0.856775 0.847107 V
0.851770 0.355395 0.350665 V
0.354102 0.355942 0.848142 V
0.351251 0.857269 0.351296 V
0.349011 0.348819 0.350406 V
0.350839 0.849507 0.851456 V
0.850515 0.848102 0.349445 V
0.849692 0.348518 0.850414 V
0.400742 0.752727 0.596599 P
0.402346 0.248790 0.094798 P
0.900831 0.246584 0.593786 P
0.901748 0.748831 0.093825 P
0.396376 0.598990 0.243999 P
0.403332 0.101113 0.754127 P
0.903077 0.100011 0.252807 P
0.900254 0.601211 0.751448 P
0.604881 0.405872 0.758599 P
0.604472 0.899814 0.259603 P
0.107283 0.904054 0.760438 P
0.107538 0.406128 0.260856 P
0.241774 0.391586 0.593621 P
0.242274 0.894832 0.092842 P
0.744459 0.895230 0.594164 P
0.742375 0.394674 0.095589 P
0.742517 0.596640 0.394923 P
0.736291 0.091702 0.890705 P
0.237091 0.093084 0.390242 P
0.234840 0.591305 0.887932 P
0.598623 0.244126 0.393895 P
0.601286 0.746175 0.891874 P
0.105550 0.751809 0.393923 P
0.102061 0.247238 0.894053 P
0.666512 0.590841 0.488807 O
0.657816 0.081162 0.984322 O
0.158370 0.079508 0.483429 O
0.155066 0.579797 0.980726 O
0.162336 0.487431 0.578577 O
0.161220 0.988195 0.077147 O
0.662879 0.988756 0.578203 O
0.660432 0.487092 0.080392 O
0.487917 0.669395 0.580609 O
0.491047 0.164776 0.076832 O
0.988559 0.161560 0.574656 O
0.989885 0.664444 0.075525 O
0.592872 0.168740 0.488565 O
0.592911 0.661830 0.979641 O
0.102513 0.663082 0.477167 O
0.090243 0.164739 0.983285 O
0.596085 0.484652 0.670537 O
0.594006 0.980660 0.171082 O
0.096874 0.980618 0.669282 O
0.093479 0.483117 0.170145 O
0.492883 0.586896 0.170447 O
0.486151 0.080405 0.667507 O
0.988442 0.081162 0.168337 O
0.983460 0.581739 0.664450 O
0.511070 0.416439 0.838009 O
0.510420 0.910376 0.336512 O
0.013495 0.916220 0.838586 O
0.012738 0.414199 0.338590 O
0.506636 0.320406 0.394311 O
0.514064 0.830730 0.904240 O
0.009247 0.826160 0.405692 O
0.015974 0.333610 0.902743 O
0.824629 0.508392 0.404045 O
0.826526 0.013967 0.901825 O
0.330215 0.018681 0.399459 O
0.324780 0.513422 0.899362 O
0.410258 0.505317 0.323992 O
0.418980 0.008786 0.836520 O
0.918449 0.007513 0.334872 O
0.916798 0.507928 0.832673 O
0.414291 0.835256 0.506593 O
0.420922 0.331345 0.004850 O
0.921210 0.331185 0.506207 O
0.920729 0.831706 0.004658 O
0.326585 0.406945 0.509859 O
0.329751 0.915057 0.011003 O
0.826637 0.912251 0.506532 O
0.827691 0.414814 0.010349 O
0.295183 0.691941 0.587119 O
0.298062 0.186474 0.081986 O
0.795728 0.186813 0.579662 O
0.797211 0.687633 0.081077 O
0.788878 0.600648 0.710155 O
0.793879 0.096462 0.206611 O
0.291893 0.100173 0.712740 O
0.298650 0.591391 0.176673 O
0.111401 0.290191 0.223991 O
0.107538 0.788051 0.723903 O
0.604505 0.787718 0.214968 O
0.607025 0.289260 0.723205 O
0.674540 0.795709 0.586998 O
0.676223 0.292347 0.078655 O
0.167540 0.293715 0.578299 O
0.173778 0.794292 0.072851 O
0.671150 0.579588 0.296487 O
0.666664 0.068487 0.792681 O
0.167324 0.069907 0.292162 O
0.164364 0.568902 0.790337 O
0.589675 0.689836 0.785832 O
0.599699 0.170929 0.298638 O
0.091393 0.188388 0.789047 O
0.104315 0.701131 0.284587 O
0.413879 0.311406 0.198163 O
0.413131 0.816927 0.700112 O
0.914867 0.810893 0.197941 O
0.913386 0.306683 0.699123 O
0.394698 0.696653 0.319032 O
0.421797 0.201984 0.822837 O
0.918585 0.201445 0.321286 O
0.919618 0.701578 0.820670 O
0.204720 0.433042 0.330052 O
0.204625 0.927213 0.830856 O
0.703851 0.922251 0.327301 O
0.702126 0.425052 0.832286 O
0.796256 0.903001 0.700177 O
0.788521 0.399238 0.204883 O
0.281834 0.392295 0.705547 O
0.283188 0.895364 0.204438 O
0.270383 0.210117 0.389659 O
0.272393 0.706932 0.887380 O
0.799028 0.703572 0.392438 O
0.773921 0.207237 0.889321 O
0.699716 0.309442 0.392988 O
0.707437 0.803200 0.898100 O
0.201414 0.825160 0.406765 O
0.210024 0.300379 0.903437 O
