Ca2 Co1 O3                              
   1.00000000000000     
     2.2620417570516835    2.2832396399888464   -0.3053529013280733
     2.2616962197452040   -2.2834320724256063   -0.3068956187353671
    -0.0978189452619003    0.0073412760670439  -11.1010003474597578
   Ca   Co   O 
     2     1     3
Direct
  0.4372707934248179  0.4376247668738405  0.7043989371151436
  0.5628581077578628  0.5624921500640356  0.2955962638634910
  0.9994174179058819  0.9994315727626373  0.5000024319947358
  0.5003050824077643  0.5003187665058616  0.4999989359440913
  0.0610963762890806  0.0607285640246096  0.3012172021882547
  0.9390522222145925  0.9394041797690157  0.6987862288942834
 
  0.00000000E+00  0.00000000E+00  0.00000000E+00
  0.00000000E+00  0.00000000E+00  0.00000000E+00
  0.00000000E+00  0.00000000E+00  0.00000000E+00
  0.00000000E+00  0.00000000E+00  0.00000000E+00
  0.00000000E+00  0.00000000E+00  0.00000000E+00
  0.00000000E+00  0.00000000E+00  0.00000000E+00
