Ca8 Si4 O16                             
   1.00000000000000     
     5.4867668564021521   -0.0000000247847141    0.4649972409740664
    -0.0000000170845847    6.7458523068256291    0.0000000477083327
     0.0499468829939456    0.0000000539052655    9.2844048096326475
   Ca   Si   O 
     8     4    16
Direct
  0.2259725570852709  0.8430656466776512  0.0685386487535595
  0.7259725489051405  0.6569343448602183  0.5685386573126152
  0.7740254829929327  0.1569397893507301  0.9314589317925552
  0.2740254915555482  0.3430602097896553  0.4314589157670312
  0.2155669794245654  0.4984365488879732  0.7989371537632337
  0.7155669965260643  0.0015634462506853  0.2989371490698716
  0.7844325264309333  0.5015633875013421  0.2010626712904937
  0.2844325100698910  0.9984366214594118  0.7010626701607308
  0.2677091112806025  0.2808020502429827  0.0817740699443661
  0.7677090948478664  0.2191979608346628  0.5817740646397453
  0.7322914773520921  0.7191971242189510  0.9182262498003197
  0.2322914844583366  0.7808028912336837  0.4182262459320611
  0.2149852011713307  0.5126629914744001  0.0598889509043801
  0.7149852239001007  0.9873370846323013  0.5598889268258915
  0.7850184639367086  0.4873374763929519  0.9401109461707478
  0.2850184606834318  0.0126625562292304  0.4401109838141863
  0.4791224154792104  0.2496759844026926  0.1918358929889408
  0.9791223477405353  0.2503239964260260  0.6918358565114957
  0.5208747236071005  0.7503244309409922  0.8081659384261073
  0.0208746917083147  0.7496755716696768  0.3081659250728350
  0.0129818210928647  0.1661928304406004  0.1375060352861865
  0.5129819136325295  0.3338071142099324  0.6375060245773483
  0.9870187962471135  0.8338094356565477  0.8624928355202854
  0.4870188346622015  0.6661905596084239  0.3624928176843554
  0.3484965437883218  0.1715367633691471  0.9263913084128035
  0.8484965007706720  0.3284632047872051  0.4263913434401019
  0.6515039054044749  0.8284635776199991  0.0736103730712614
  0.1515038952458383  0.6715364008319256  0.5736104130664899
 
  0.00000000E+00  0.00000000E+00  0.00000000E+00
  0.00000000E+00  0.00000000E+00  0.00000000E+00
  0.00000000E+00  0.00000000E+00  0.00000000E+00
  0.00000000E+00  0.00000000E+00  0.00000000E+00
  0.00000000E+00  0.00000000E+00  0.00000000E+00
  0.00000000E+00  0.00000000E+00  0.00000000E+00
  0.00000000E+00  0.00000000E+00  0.00000000E+00
  0.00000000E+00  0.00000000E+00  0.00000000E+00
  0.00000000E+00  0.00000000E+00  0.00000000E+00
  0.00000000E+00  0.00000000E+00  0.00000000E+00
  0.00000000E+00  0.00000000E+00  0.00000000E+00
  0.00000000E+00  0.00000000E+00  0.00000000E+00
  0.00000000E+00  0.00000000E+00  0.00000000E+00
  0.00000000E+00  0.00000000E+00  0.00000000E+00
  0.00000000E+00  0.00000000E+00  0.00000000E+00
  0.00000000E+00  0.00000000E+00  0.00000000E+00
  0.00000000E+00  0.00000000E+00  0.00000000E+00
  0.00000000E+00  0.00000000E+00  0.00000000E+00
  0.00000000E+00  0.00000000E+00  0.00000000E+00
  0.00000000E+00  0.00000000E+00  0.00000000E+00
  0.00000000E+00  0.00000000E+00  0.00000000E+00
  0.00000000E+00  0.00000000E+00  0.00000000E+00
  0.00000000E+00  0.00000000E+00  0.00000000E+00
  0.00000000E+00  0.00000000E+00  0.00000000E+00
  0.00000000E+00  0.00000000E+00  0.00000000E+00
  0.00000000E+00  0.00000000E+00  0.00000000E+00
  0.00000000E+00  0.00000000E+00  0.00000000E+00
  0.00000000E+00  0.00000000E+00  0.00000000E+00
