Ti6 P18 O54                             
   1.00000000000000     
    -9.4834773153663487   -0.0003196207652018    1.3132189255784372
     0.0019024357734863    0.0020640844463078  -10.7498094537050708
     4.7409137801988326   -9.7413009824867132    4.7194637857324953
   Ti   P    O 
     6    18    54
Direct
  0.9162059375219656  0.5902334830919429  0.3417102088806061
  0.5748488357591057  0.7490884172084975  0.6587431145539426
  0.9056667585144638  0.0783833235309714  0.3226371241307930
  0.5832490603014975  0.2559367869698121  0.6771696849649302
  0.2353144257357798  0.4442794364317422  0.0106332131613982
  0.2242812678553747  0.9335031837966028  0.9890892209196167
  0.6588710308883492  0.9935482728745200  0.4448258986155054
  0.2140213313039396  0.0488067200471960  0.5551725003411292
  0.8436991247119536  0.8410346981800529  0.5639768646106802
  0.2798062366618410  0.7771053715549456  0.4360662872087389
  0.0276417154693007  0.4284795403574293  0.5454375524158053
  0.4822159908553800  0.3832563566430665  0.4545998296581288
  0.9702041399415577  0.3418212470019739  0.1056514388197556
  0.8644412095024876  0.7361670223018351  0.8944729542242129
  0.5392170595210288  0.4014819804616607  0.2270443005141018
  0.3121174685163055  0.6743596176634483  0.7728981395398904
  0.1209092905804212  0.0883733232682147  0.7851781292023574
  0.3356658317618724  0.8031911788680475  0.2147647898584637
  0.1648956550855090  0.1905965090424502  0.2271324822409042
  0.9378119231358397  0.4634881444937875  0.7728250629903712
  0.5989771897932883  0.1228485629359568  0.1046116872207747
  0.4944459451559666  0.5183082335966773  0.8952920347089659
  0.8091687055703147  0.7276228375591174  0.1222659401377229
  0.6868930698277396  0.1054729713752280  0.8778057939938151
  0.9626578683378071  0.5075774718368820  0.4732399926243858
  0.4895760052173372  0.5346387422643559  0.5270699051117305
  0.9470627850936779  0.7780172921275579  0.5051371733431651
  0.4420909921118508  0.7731425243064152  0.4949491744604373
  0.1510141962947813  0.6463084509607953  0.3845208385657202
  0.7665949034816109  0.7619167359555021  0.6156838743667521
  0.8705536576970161  0.4031133796605459  0.1708601241012886
  0.6996056868664908  0.7324818347149389  0.8296205634321154
  0.6780430795792327  0.5277055663338004  0.2870505074880825
  0.3908536455329070  0.7404739794290691  0.7127827211119921
  0.9013924413393823  0.6923536519987934  0.2275553989629344
  0.6740716688422523  0.9648811869686114  0.7724930617466796
  0.7759183013144622  0.0793131116220991  0.4254959989722877
  0.3504357807059364  0.1540355466336436  0.5747221009882040
  0.0349607118779005  0.2855013961355155  0.4655243182508499
  0.5694643889781901  0.3200651020391518  0.5343393909834973
  0.0600638023021460  0.0115100489845403  0.4418395941649180
  0.6181442390275222  0.0696082445980295  0.5580824742541921
  0.7545711237178594  0.1569579584028347  0.2152871532711700
  0.5395248092144840  0.4418564955054265  0.7846799296646552
  0.7863993718153850  0.8704693198511322  0.1675676149596654
  0.6189179859036997  0.2028997710068197  0.8323591045563461
  0.0490989404906728  0.0891154100142444  0.2330841411669482
  0.8161832382523073  0.3557527694047309  0.7666585153605823
  0.3440359110335010  0.6560157097839792  0.1520192970184908
  0.1919018767998111  0.0039034348422149  0.8478145534665558
  0.3824056317289504  0.4126925053798800  0.1610181791851630
  0.2212833008460109  0.7516603263149761  0.8388745995167852
  0.1014411993436539  0.5001867927721122  0.8727116600217713
  0.2285005787107153  0.1271590072239661  0.1271678872884792
  0.1240180096575756  0.2318432158473200  0.8771122823688984
  0.2469169737486467  0.8547668958762102  0.1228972887098294
  0.0524792791569126  0.4294707038922425  0.0638253475184101
  0.9884010921439668  0.8656236252215095  0.9359552460462410
  0.3849599806442114  0.4318090958570409  0.9194435951343749
  0.4652515758405258  0.0123400771977131  0.0805409623704278
  0.7143764288796604  0.8646008290683653  0.4550522588429970
  0.2593484437851998  0.9096649719501784  0.5450036140260153
  0.9420090561230907  0.0027227916473791  0.6799469320279599
  0.2621271198055339  0.8227561893915549  0.3200385150617322
  0.5079448549681942  0.9112439427889285  0.3033790359398623
  0.2045038773967676  0.1079867008929156  0.6966481953141894
  0.2017414212642592  0.5166312755874074  0.6592140097207420
  0.5424536917087934  0.3576342809743664  0.3408082444355074
  0.0961638581846032  0.3090690192737355  0.2073378402740076
  0.8884581917233447  0.6015855728137822  0.7926200272718518
  0.5551856359861418  0.2642435253214472  0.1206799612772613
  0.4344001818529435  0.6435732708381821  0.8792772182303210
  0.6447552189481840  0.6082531106407956  0.0367337700089934
  0.6079536541764554  0.0713189473644888  0.9631586416807920
  0.8680227056577010  0.1847335018265142  0.9812529574524547
  0.8870221244166387  0.7035650026517288  0.0189257621393679
  0.9289396185596104  0.4121258236049314  0.6249433101299289
  0.3040296789422143  0.2871366431435050  0.3749908826993718
 
  0.00000000E+00  0.00000000E+00  0.00000000E+00
  0.00000000E+00  0.00000000E+00  0.00000000E+00
  0.00000000E+00  0.00000000E+00  0.00000000E+00
  0.00000000E+00  0.00000000E+00  0.00000000E+00
  0.00000000E+00  0.00000000E+00  0.00000000E+00
  0.00000000E+00  0.00000000E+00  0.00000000E+00
  0.00000000E+00  0.00000000E+00  0.00000000E+00
  0.00000000E+00  0.00000000E+00  0.00000000E+00
  0.00000000E+00  0.00000000E+00  0.00000000E+00
  0.00000000E+00  0.00000000E+00  0.00000000E+00
  0.00000000E+00  0.00000000E+00  0.00000000E+00
  0.00000000E+00  0.00000000E+00  0.00000000E+00
  0.00000000E+00  0.00000000E+00  0.00000000E+00
  0.00000000E+00  0.00000000E+00  0.00000000E+00
  0.00000000E+00  0.00000000E+00  0.00000000E+00
  0.00000000E+00  0.00000000E+00  0.00000000E+00
  0.00000000E+00  0.00000000E+00  0.00000000E+00
  0.00000000E+00  0.00000000E+00  0.00000000E+00
  0.00000000E+00  0.00000000E+00  0.00000000E+00
  0.00000000E+00  0.00000000E+00  0.00000000E+00
  0.00000000E+00  0.00000000E+00  0.00000000E+00
  0.00000000E+00  0.00000000E+00  0.00000000E+00
  0.00000000E+00  0.00000000E+00  0.00000000E+00
  0.00000000E+00  0.00000000E+00  0.00000000E+00
  0.00000000E+00  0.00000000E+00  0.00000000E+00
  0.00000000E+00  0.00000000E+00  0.00000000E+00
  0.00000000E+00  0.00000000E+00  0.00000000E+00
  0.00000000E+00  0.00000000E+00  0.00000000E+00
  0.00000000E+00  0.00000000E+00  0.00000000E+00
  0.00000000E+00  0.00000000E+00  0.00000000E+00
  0.00000000E+00  0.00000000E+00  0.00000000E+00
  0.00000000E+00  0.00000000E+00  0.00000000E+00
  0.00000000E+00  0.00000000E+00  0.00000000E+00
  0.00000000E+00  0.00000000E+00  0.00000000E+00
  0.00000000E+00  0.00000000E+00  0.00000000E+00
  0.00000000E+00  0.00000000E+00  0.00000000E+00
  0.00000000E+00  0.00000000E+00  0.00000000E+00
  0.00000000E+00  0.00000000E+00  0.00000000E+00
  0.00000000E+00  0.00000000E+00  0.00000000E+00
  0.00000000E+00  0.00000000E+00  0.00000000E+00
  0.00000000E+00  0.00000000E+00  0.00000000E+00
  0.00000000E+00  0.00000000E+00  0.00000000E+00
  0.00000000E+00  0.00000000E+00  0.00000000E+00
  0.00000000E+00  0.00000000E+00  0.00000000E+00
  0.00000000E+00  0.00000000E+00  0.00000000E+00
  0.00000000E+00  0.00000000E+00  0.00000000E+00
  0.00000000E+00  0.00000000E+00  0.00000000E+00
  0.00000000E+00  0.00000000E+00  0.00000000E+00
  0.00000000E+00  0.00000000E+00  0.00000000E+00
  0.00000000E+00  0.00000000E+00  0.00000000E+00
  0.00000000E+00  0.00000000E+00  0.00000000E+00
  0.00000000E+00  0.00000000E+00  0.00000000E+00
  0.00000000E+00  0.00000000E+00  0.00000000E+00
  0.00000000E+00  0.00000000E+00  0.00000000E+00
  0.00000000E+00  0.00000000E+00  0.00000000E+00
  0.00000000E+00  0.00000000E+00  0.00000000E+00
  0.00000000E+00  0.00000000E+00  0.00000000E+00
  0.00000000E+00  0.00000000E+00  0.00000000E+00
  0.00000000E+00  0.00000000E+00  0.00000000E+00
  0.00000000E+00  0.00000000E+00  0.00000000E+00
  0.00000000E+00  0.00000000E+00  0.00000000E+00
  0.00000000E+00  0.00000000E+00  0.00000000E+00
  0.00000000E+00  0.00000000E+00  0.00000000E+00
  0.00000000E+00  0.00000000E+00  0.00000000E+00
  0.00000000E+00  0.00000000E+00  0.00000000E+00
  0.00000000E+00  0.00000000E+00  0.00000000E+00
  0.00000000E+00  0.00000000E+00  0.00000000E+00
  0.00000000E+00  0.00000000E+00  0.00000000E+00
  0.00000000E+00  0.00000000E+00  0.00000000E+00
  0.00000000E+00  0.00000000E+00  0.00000000E+00
  0.00000000E+00  0.00000000E+00  0.00000000E+00
  0.00000000E+00  0.00000000E+00  0.00000000E+00
  0.00000000E+00  0.00000000E+00  0.00000000E+00
  0.00000000E+00  0.00000000E+00  0.00000000E+00
  0.00000000E+00  0.00000000E+00  0.00000000E+00
  0.00000000E+00  0.00000000E+00  0.00000000E+00
  0.00000000E+00  0.00000000E+00  0.00000000E+00
  0.00000000E+00  0.00000000E+00  0.00000000E+00
