Ca2 Ni4 S6 O24                          
   1.00000000000000     
     7.5392849999999996    0.2015200000000000    4.5019109999999998
     2.6425139999999998    7.0344049999999996    4.4763630000000001
     0.1648180000000000    0.1860750000000000    8.7832670000000004
   Ca   Ni   S    O 
     2     4     6    24
Direct
  0.2499093795552141  0.8613346281403171  0.5824424350038815
  0.9628742928420433  0.0199593420443761  0.0122980995471990
  0.6593928729109247  0.6353217714938877  0.6555375280843040
  0.1443138642369658  0.1464365420354577  0.1388570708518466
  0.8356621246054984  0.8466051842734214  0.8455526004873809
  0.3656901456849062  0.3458030850368604  0.3447223792635986
  0.9675406147344119  0.2440115512560976  0.5344023762444094
  0.4384400875270116  0.0344118217027286  0.7532161900347015
  0.5586007769698632  0.9627221864455406  0.2337295348992809
  0.7474122595526465  0.4463381423954421  0.0447910112904700
  0.2492498039110028  0.5399281228605979  0.9585984683174356
  0.0427728844789783  0.7426172072967523  0.4493005088551698
  0.4203205119917285  0.5532918185687798  0.7820538703683420
  0.8815441667860433  0.2493791415817366  0.1243165310949075
  0.8302545115359892  0.4368611413831150  0.5221556221543212
  0.1090282214190317  0.8807215120008662  0.2553045594977223
  0.5621613216016367  0.8131020788359893  0.4231399047798060
  0.2398062324293282  0.1083600596010190  0.8847892145027410
  0.7361687419537742  0.8907219539139938  0.0892926296725185
  0.1840408762399576  0.5483171197926059  0.4719182677523205
  0.0934558696817442  0.7365320111536046  0.9066452552780797
  0.4705629838063905  0.1774845622567248  0.5619050109076195
  0.9095839745887725  0.0966711036785057  0.7294248351033270
  0.5587266091681765  0.4804071459476804  0.1906317148261420
  0.9910804028811712  0.1821414135639066  0.3965691043341805
  0.4487482494947827  0.8579422646318023  0.7549154703144682
  0.3835966232626297 -0.0081868482870962  0.2220428231186252
  0.7490801838247189  0.4380836061759996  0.8791776098456928
  0.1986783815830468  0.3895404645058179  0.9942464606113963
  0.8558374352309854  0.7614505845540104  0.4757237726417898
  0.1617371451370138  0.2133524466052298  0.5122027116398881
  0.5753133572134242  0.9885726173255454  0.8304839939315551
  0.5586784736801520  0.1402235766220957  0.2133330669539301
  0.8238106724046479  0.5880226141715473 -0.0150531465723529
  0.2673900384156372  0.5241568882586284  0.1210602155536420
  0.0201307121032703  0.8009641717479168  0.5937297242178841
 
             NaN             NaN             NaN
             NaN             NaN             NaN
             NaN             NaN             NaN
             NaN             NaN             NaN
             NaN             NaN             NaN
             NaN             NaN             NaN
             NaN             NaN             NaN
             NaN             NaN             NaN
             NaN             NaN             NaN
             NaN             NaN             NaN
             NaN             NaN             NaN
             NaN             NaN             NaN
             NaN             NaN             NaN
             NaN             NaN             NaN
             NaN             NaN             NaN
             NaN             NaN             NaN
             NaN             NaN             NaN
             NaN             NaN             NaN
             NaN             NaN             NaN
             NaN             NaN             NaN
             NaN             NaN             NaN
             NaN             NaN             NaN
             NaN             NaN             NaN
             NaN             NaN             NaN
             NaN             NaN             NaN
             NaN             NaN             NaN
             NaN             NaN             NaN
             NaN             NaN             NaN
             NaN             NaN             NaN
             NaN             NaN             NaN
             NaN             NaN             NaN
             NaN             NaN             NaN
             NaN             NaN             NaN
             NaN             NaN             NaN
             NaN             NaN             NaN
             NaN             NaN             NaN
