Ca2 Ni4 S6 O24
1.0
7.539285 0.201520 4.501911
2.642514 7.034405 4.476363
0.164818 0.186075 8.783267
Ca Ni S O
2 4 6 24
direct
0.284779 0.820833 0.575718 Ca
0.965818 1.013241 1.016952 Ca
0.652473 0.647133 0.651276 Ni
0.137841 0.152372 0.142487 Ni
0.838696 0.845911 0.844752 Ni
0.363860 0.347200 0.348735 Ni
0.967950 0.250413 0.532837 S
0.433192 0.039280 0.751680 S
0.556754 0.962153 0.235446 S
0.741895 0.454168 0.049886 S
0.251687 0.538794 0.955738 S
0.035365 0.749505 0.454092 S
0.419955 0.556296 0.777037 O
0.881698 0.255116 0.113292 O
0.833058 0.440524 0.530609 O
0.101547 0.886847 0.261025 O
0.571372 0.790478 0.410873 O
0.239577 0.098740 0.894416 O
0.728619 0.914003 0.075489 O
0.168143 0.554897 0.469001 O
0.092925 0.734943 0.914327 O
0.457275 0.200528 0.573623 O
0.916416 0.099336 0.725511 O
0.558678 0.476970 0.204906 O
0.977933 0.201445 0.392837 O
0.437732 0.882633 0.724404 O
0.379080 1.005525 0.219832 O
0.729229 0.465807 0.883388 O
0.200795 0.391192 0.985375 O
0.844067 0.777793 0.485969 O
0.162029 0.221418 0.502925 O
0.578178 -0.031929 0.829891 O
0.559122 0.123022 0.243933 O
0.818585 0.590644 0.002719 O
0.279706 0.512917 0.116848 O
0.027703 0.797443 0.597603 O
