Mn10 Si10 O30                           
   1.00000000000000     
     7.5955439824281212    0.0035493485254928   -0.5855918704600384
    -3.2440437165544322   11.3937664289508955   -0.5143440076591863
    -0.0073989648952291    0.0051622975696885    6.7003366123021708
   Mn   Si   O 
    10    10    30
Direct
  0.1209570167358294  0.1481338108554624  0.0277277298512359
  0.8790403697794531  0.8518655616700173  0.9722719238224755
  0.3161487906971630  0.4451639050074618  0.1271846985897014
  0.6838531580185787  0.5548361627260263  0.8728111922192880
  0.5110936366403891  0.7309424909266582  0.1859484470024597
  0.4889076860580772  0.2690554949341148  0.8140519192428215
  0.7043992742253522  0.0281426787727739  0.2073430268319782
  0.2955978353017272  0.9718583874766011  0.7926563266245168
  0.9633449443319648  0.2958021108209508  0.3469764822299268
  0.0366808748251159  0.7042114271005318  0.6530302108673425
  0.7795248739047054  0.8753759401507750  0.5045632330740943
  0.2204754099227060  0.1246208849674204  0.4954346012845718
  0.7402749519921556  0.5333704742667749  0.3633984600895985
  0.2597176063981479  0.4666312531909114  0.6366045210592048
  0.5473762168988330  0.2661398432043640  0.2973609779881059
  0.4526317968646083  0.7338593700160558  0.7026413747083211
  0.2558183037343724  0.9109192504024719  0.2455967178027052
  0.7441809944157285  0.0890786540039059  0.7544000825373800
  0.0775527052831038  0.6546275373612715  0.1518503600886305
  0.9224441583580543  0.3453706735840072  0.8481520196572916
  0.0432681401100581  0.3197018512761858  0.0426977475500934
  0.9567362787394558  0.6802996560722718  0.9572976353681497
  0.4031538683088343  0.2693020821871528  0.1088889305399050
  0.5968498476478175  0.7306961877234031  0.8911141931666222
  0.2530640202776340  0.6113574635353061  0.1077886441591573
  0.7469335150804213  0.3886412202994620  0.8922114205952880
  0.5994161286933561  0.5653532910075683  0.1951556241996357
  0.4005792462395092  0.4346410873219213  0.8048345275534743
  0.4535434303392023  0.9043809760992403  0.1905511237136182
  0.5464567952796386  0.0956185542287997  0.8094464934291778
  0.7992822482524389  0.8676837588575950  0.2671035675609446
  0.2007163506802172  0.1323040743933888  0.7328953376679621
  0.6936486771927619  0.1942363033749501  0.2591561268258289
  0.3063694684715301  0.8057698308462875  0.7408552641809081
  0.0645799311096127  0.1445274994563093  0.3379955825563314
  0.9354195297942525  0.8554710247378949  0.6620044244534142
  0.7441655199645467  0.0054766417578733  0.5522927618808069
  0.2558353546887844  0.9945213609393662  0.4477031548097088
  0.2322576708830297  0.4013105691497145  0.4179404473810067
  0.7677120419873305  0.5986994645232784  0.5820522739395670
  0.1566028954705061  0.9607419102113397  0.0581508822099295
  0.8433947359194462  0.0392565829847698  0.9418466398651404
  0.4239836192443462  0.2179880525785904  0.4823873729418438
  0.5760150756353326  0.7820127668832555  0.5176119180339356
  0.6804252367454566  0.3925672670854325  0.3854290439845300
  0.3195748324776915  0.6074340376998535  0.6145733072602582
  0.9468202025837726  0.5615629248316125  0.2865095573055001
  0.0531747908945945  0.4384396632638783  0.7134966518194119
  0.1405105542056901  0.7781946690101762  0.2976223879407982
  0.8594893886966943  0.2218033162246016  0.7023826515353946
 
  0.00000000E+00  0.00000000E+00  0.00000000E+00
  0.00000000E+00  0.00000000E+00  0.00000000E+00
  0.00000000E+00  0.00000000E+00  0.00000000E+00
  0.00000000E+00  0.00000000E+00  0.00000000E+00
  0.00000000E+00  0.00000000E+00  0.00000000E+00
  0.00000000E+00  0.00000000E+00  0.00000000E+00
  0.00000000E+00  0.00000000E+00  0.00000000E+00
  0.00000000E+00  0.00000000E+00  0.00000000E+00
  0.00000000E+00  0.00000000E+00  0.00000000E+00
  0.00000000E+00  0.00000000E+00  0.00000000E+00
  0.00000000E+00  0.00000000E+00  0.00000000E+00
  0.00000000E+00  0.00000000E+00  0.00000000E+00
  0.00000000E+00  0.00000000E+00  0.00000000E+00
  0.00000000E+00  0.00000000E+00  0.00000000E+00
  0.00000000E+00  0.00000000E+00  0.00000000E+00
  0.00000000E+00  0.00000000E+00  0.00000000E+00
  0.00000000E+00  0.00000000E+00  0.00000000E+00
  0.00000000E+00  0.00000000E+00  0.00000000E+00
  0.00000000E+00  0.00000000E+00  0.00000000E+00
  0.00000000E+00  0.00000000E+00  0.00000000E+00
  0.00000000E+00  0.00000000E+00  0.00000000E+00
  0.00000000E+00  0.00000000E+00  0.00000000E+00
  0.00000000E+00  0.00000000E+00  0.00000000E+00
  0.00000000E+00  0.00000000E+00  0.00000000E+00
  0.00000000E+00  0.00000000E+00  0.00000000E+00
  0.00000000E+00  0.00000000E+00  0.00000000E+00
  0.00000000E+00  0.00000000E+00  0.00000000E+00
  0.00000000E+00  0.00000000E+00  0.00000000E+00
  0.00000000E+00  0.00000000E+00  0.00000000E+00
  0.00000000E+00  0.00000000E+00  0.00000000E+00
  0.00000000E+00  0.00000000E+00  0.00000000E+00
  0.00000000E+00  0.00000000E+00  0.00000000E+00
  0.00000000E+00  0.00000000E+00  0.00000000E+00
  0.00000000E+00  0.00000000E+00  0.00000000E+00
  0.00000000E+00  0.00000000E+00  0.00000000E+00
  0.00000000E+00  0.00000000E+00  0.00000000E+00
  0.00000000E+00  0.00000000E+00  0.00000000E+00
  0.00000000E+00  0.00000000E+00  0.00000000E+00
  0.00000000E+00  0.00000000E+00  0.00000000E+00
  0.00000000E+00  0.00000000E+00  0.00000000E+00
  0.00000000E+00  0.00000000E+00  0.00000000E+00
  0.00000000E+00  0.00000000E+00  0.00000000E+00
  0.00000000E+00  0.00000000E+00  0.00000000E+00
  0.00000000E+00  0.00000000E+00  0.00000000E+00
  0.00000000E+00  0.00000000E+00  0.00000000E+00
  0.00000000E+00  0.00000000E+00  0.00000000E+00
  0.00000000E+00  0.00000000E+00  0.00000000E+00
  0.00000000E+00  0.00000000E+00  0.00000000E+00
  0.00000000E+00  0.00000000E+00  0.00000000E+00
  0.00000000E+00  0.00000000E+00  0.00000000E+00
