Ca1 Co4 P6 O24                          
   1.00000000000000     
     2.6179999999999999    7.0517989999999999    4.4432770000000001
     0.2267030000000000    0.2506390000000000    8.7351369999999999
     7.4362490000000001    0.2076690000000000    4.4912130000000001
   Ca   Co   P    O 
     1     4     6    24
Direct
  0.2605853869895765  0.8026850935045242  0.5652277619074647
  0.6532566921048992  0.6355858690005306  0.6395403518864706
  0.1334841097705147  0.1545350501639902  0.1330536304521940
  0.8339412792843929  0.8503492007621820  0.8643701745677819
  0.3604948374358852  0.3421855449492638  0.3585981290271487
  0.2568374023636832  0.5186242481335124  0.9633179948318912
  0.0290039836591373  0.7359280964286878  0.4684154220704956
  0.9779316751795033  0.2467682125609964  0.5177861467450724
  0.4489228623846653  0.0284895993680538  0.7425406752407062
  0.5470127485240869  0.9786200893425053  0.2387868201909090
  0.7341734616577148  0.4692307831836772  0.0517119060733171
  0.5866516639473494  0.7754772954455267  0.3971647568684112
  0.2916058756404073  0.0345771627483647  0.9419746607919446
  0.4290382248383735  0.5570909744954722  0.7721463514684134
  0.9154870108408530  0.2873931436159125  0.0526324500300939
  0.7998673091952453  0.3994300373951993  0.5994056358955192
  0.0641606809102960  0.9277678727212564  0.3286012326896112
  0.9700099527204223  0.0431980177099483  0.6575374174943970
  0.5650396992033471  0.4295436499769968  0.2380884135022089
  0.7066234382054304  0.9767455718085940  0.0407260714896275
  0.2147696812317299  0.5732646578849728  0.4103859347333698
  0.0827469290726173  0.7048784832337983  0.9288807678329507
  0.4127131687919787  0.2312022663699821  0.5871868271351087
  0.2338663102005507  0.3547736370238823  0.9661249197037060
  0.8535818287063472  0.7382698914142685  0.4716362517107898
  0.9844607411423349  0.2844213997973769  0.3224707584840402
  0.4559465468169992  0.8820831552086912  0.6934396909969845
  0.3503331900946645  1.0204553936773930  0.2452802761601953
  0.6927298410143642  0.5382063647722367  0.8708203800343270
  0.2932662276635274  0.4717412787339643  0.1362808702375214
  0.0068700560649762  0.7067032015172217  0.6695171748009064
  0.1608493422725588  0.2435051169059368  0.5074093933031557
  0.6418530086780321  0.9713050053538771  0.7591326785328819
  0.5416805554879430  0.1256426244704009  0.2884483078072235
  0.7616014695550329  0.6308459541022524  0.0477711211616260
 
             NaN             NaN             NaN
             NaN             NaN             NaN
             NaN             NaN             NaN
             NaN             NaN             NaN
             NaN             NaN             NaN
             NaN             NaN             NaN
             NaN             NaN             NaN
             NaN             NaN             NaN
             NaN             NaN             NaN
             NaN             NaN             NaN
             NaN             NaN             NaN
             NaN             NaN             NaN
             NaN             NaN             NaN
             NaN             NaN             NaN
             NaN             NaN             NaN
             NaN             NaN             NaN
             NaN             NaN             NaN
             NaN             NaN             NaN
             NaN             NaN             NaN
             NaN             NaN             NaN
             NaN             NaN             NaN
             NaN             NaN             NaN
             NaN             NaN             NaN
             NaN             NaN             NaN
             NaN             NaN             NaN
             NaN             NaN             NaN
             NaN             NaN             NaN
             NaN             NaN             NaN
             NaN             NaN             NaN
             NaN             NaN             NaN
             NaN             NaN             NaN
             NaN             NaN             NaN
             NaN             NaN             NaN
             NaN             NaN             NaN
             NaN             NaN             NaN
