Ca1 Co4 P6 O24
1.0
2.618000 7.051799 4.443277
0.226703 0.250639 8.735137
7.436249 0.207669 4.491213
Ca Co P O
1 4 6 24
direct
0.342642 0.736989 0.569191 Ca
0.648803 0.639070 0.642513 Co
0.136875 0.142831 0.138766 Co
0.851931 0.849854 0.852724 Co
0.359745 0.350234 0.352190 Co
0.244889 0.531845 0.962001 P
0.035248 0.744687 0.469745 P
0.955771 0.249510 0.526520 P
0.467469 0.029734 0.745036 P
0.536284 0.965114 0.239446 P
0.746466 0.467528 0.037618 P
0.593020 0.772426 0.399736 O
0.313349 0.032524 0.944221 O
0.402320 0.586118 0.765772 O
0.937851 0.299759 0.028022 O
0.773724 0.410365 0.584858 O
0.043013 0.934932 0.303730 O
0.951115 0.054982 0.690320 O
0.591673 0.412435 0.233398 O
0.686158 0.970455 0.039760 O
0.218604 0.582162 0.414621 O
0.057271 0.705096 0.955376 O
0.407640 0.227660 0.591702 O
0.237276 0.351415 0.986015 O
0.862430 0.716688 0.503756 O
0.968145 0.256041 0.341958 O
0.472527 0.878132 0.703729 O
0.336924 0.989745 0.266524 O
0.692382 0.509177 0.875038 O
0.290504 0.496674 0.126824 O
0.028744 0.739334 0.651976 O
0.133761 0.264100 0.499534 O
0.663150 -0.006615 0.731144 O
0.513206 0.127327 0.281147 O
0.755932 0.644434 0.019335 O
