Ca4 V4 P6 O24                           
   1.00000000000000     
     2.5755810000000001    7.2629099999999998    4.3811650000000002
    -0.0058860000000000    0.0609010000000000    8.7726670000000002
     7.6624270000000001    0.0633570000000000    4.2681149999999999
   Ca   V    P    O 
     4     4     6    24
Direct
  0.4650340460691494  0.5715485216857515  0.4961025690127289
  0.9539203151437837  0.0102216900597381  0.0196471384997128
  0.3901223905662369  0.7470307236239989  0.0826684449179133
  0.1004170179983382  0.3916817074759103  0.7511248800236004
  0.6536070328433142  0.6357215745491126  0.6482048483488536
  0.1513468217346541  0.1419505567479436  0.1561629630036227
  0.8477319311429865  0.8682064449678735  0.8484526823324149
  0.3425540414384406  0.3498397499288946  0.3495639194184524
  0.2384275161862210  0.5582427429031738  0.9514703823339190
  0.0397627457306763  0.7558079424693175  0.4524874271304865
  0.9467633172869645  0.2550841996573772  0.5530214026050069
  0.4605713985038575  0.0460798099537474  0.7472324311331879
  0.5349987818890771  0.9487346401835248  0.2496567361917217
  0.7513754227995298  0.4506711817990542  0.0421472665216775
  0.5554003808502379  0.7998715478535956  0.4327826769472657
  0.2642269508517897  0.0743812834369616  0.9085414892979925
  0.4136908929266409  0.5703577922816989  0.7781640818844152
  0.9170353153280134  0.2737010873873501  0.0773487148795609
  0.7648255979995282  0.4230809882197779  0.5498939823889484
  0.0745477847821927  0.9036747465208862  0.2597989876189554
  0.9147856070822005  0.1023704083337041  0.7417852446039422
  0.5720227486587712  0.4438232381177926  0.2097595211916956
  0.7243727691522467  0.9169335852786011  0.0960477872109244
  0.2284704556082519  0.5862522581755407  0.4328237317522002
  0.0804936133007399  0.7446232774275473  0.9222653767635444
  0.4247345539094375  0.2195294821728291  0.5823655982165722
  0.1936172140380942  0.3998717281545575  0.9727209723748181
  0.8832151540166431  0.7026859492614866  0.4946108686051932
  0.0130364945229863  0.1871899649218845  0.3953211817174444
  0.5017668435844810  0.8560279910667606  0.7442626909069116
  0.3964658244119598  0.9168694052350750  0.2184058368777703
  0.7505671272829362  0.4525855666974922  0.8662075234031051
  0.2717183692985692  0.5354159191480243  0.1183250370145988
  0.0208869934450453  0.7941128611544578  0.6131106389572337
  0.0952271558389337  0.3112158097793172  0.5383133213252624
  0.6063212943293569  0.0328789082618191  0.7985611624196167
  0.4666228938519759  0.1425386827306458  0.2518562954117743
  0.7734830657988933  0.6298171605707766 -0.0014829228276845
 
             NaN             NaN             NaN
             NaN             NaN             NaN
             NaN             NaN             NaN
             NaN             NaN             NaN
             NaN             NaN             NaN
             NaN             NaN             NaN
             NaN             NaN             NaN
             NaN             NaN             NaN
             NaN             NaN             NaN
             NaN             NaN             NaN
             NaN             NaN             NaN
             NaN             NaN             NaN
             NaN             NaN             NaN
             NaN             NaN             NaN
             NaN             NaN             NaN
             NaN             NaN             NaN
             NaN             NaN             NaN
             NaN             NaN             NaN
             NaN             NaN             NaN
             NaN             NaN             NaN
             NaN             NaN             NaN
             NaN             NaN             NaN
             NaN             NaN             NaN
             NaN             NaN             NaN
             NaN             NaN             NaN
             NaN             NaN             NaN
             NaN             NaN             NaN
             NaN             NaN             NaN
             NaN             NaN             NaN
             NaN             NaN             NaN
             NaN             NaN             NaN
             NaN             NaN             NaN
             NaN             NaN             NaN
             NaN             NaN             NaN
             NaN             NaN             NaN
             NaN             NaN             NaN
             NaN             NaN             NaN
             NaN             NaN             NaN
