Ca4 V4 P6 O24                           
   1.00000000000000     
     2.5755810000000001    7.2629099999999998    4.3811650000000002
    -0.0058860000000000    0.0609010000000000    8.7726670000000002
     7.6624270000000001    0.0633570000000000    4.2681149999999999
   Ca   V    P    O 
     4     4     6    24
Direct
  0.4559280136921143  0.5723344128398297  0.4970691709981618
  0.9596416369528440  0.0076963519228614  0.0161510992717178
  0.3954590145095221  0.7502804910722731  0.0777609931314856
  0.0982635160424124  0.3988810542463813  0.7523589812468486
  0.6522772110526955  0.6371293263499077  0.6443000223337074
  0.1511014673816173  0.1431445024771088  0.1542368813810843
  0.8491232445430342  0.8657957695527739  0.8478681729364476
  0.3431837130710838  0.3492873187194946  0.3528403351063726
  0.2395678759348050  0.5570640585415262  0.9507093011702810
  0.0392709443651291  0.7553173260972853  0.4497588943743814
  0.9504633220380008  0.2531948757193948  0.5536016984813619
  0.4558913972046897  0.0484541674101028  0.7446670198344009
  0.5372430522327919  0.9468735583459681  0.2493290100516565
  0.7498684633373729  0.4537746982205848  0.0467023862191548
  0.5732802586504762  0.7807849702396011  0.4181762018576546
  0.2609627193317289  0.0731911182949547  0.9083499581119843
  0.4104788264355007  0.5724445718069237  0.7735607231554299
  0.9170002245079003  0.2750751247312310  0.0735144422786008
  0.7664816589045083  0.4172492423451418  0.5586827568773604
  0.0735795362350166  0.9067821674132185  0.2602257411931741
  0.9208752344794270  0.0943761905101253  0.7380989555198268
  0.5730426689166250  0.4437857913871560  0.2162218461703497
  0.7178354668964426  0.9368116753437308  0.0856183903938196
  0.2284186090432226  0.5877999791241744  0.4244272756192871
  0.0779774746343250  0.7405557166439837  0.9282245181910677
  0.4218618100637103  0.2328480537067355  0.5886218720742213
  0.1946467942022829  0.3983604155205293  0.9720333067551981
  0.8819925947442929  0.7054534336680487  0.4901407270403347
  0.0173914621321489  0.1920386611567816  0.3913279038972943
  0.4903481175805789  0.8691154323623744  0.7253031995774554
  0.3939847037203521  0.9236051622783809  0.2166676918180877
  0.7402768666455599  0.4685535012416071  0.8695969396428135
  0.2807496890026696  0.5311047934283676  0.1133929923899891
  0.0248794658432798  0.7816751867629945  0.6162837429855580
  0.0972844872038622  0.3073145274298429  0.5451393825555441
  0.6034442705762030  0.0159819431318881  0.8064201675387499
  0.4645528019933293  0.1272794470717041  0.2824674203998772
  0.7758021423985175  0.6288244366042884  0.0097936040640331
 
             NaN             NaN             NaN
             NaN             NaN             NaN
             NaN             NaN             NaN
             NaN             NaN             NaN
             NaN             NaN             NaN
             NaN             NaN             NaN
             NaN             NaN             NaN
             NaN             NaN             NaN
             NaN             NaN             NaN
             NaN             NaN             NaN
             NaN             NaN             NaN
             NaN             NaN             NaN
             NaN             NaN             NaN
             NaN             NaN             NaN
             NaN             NaN             NaN
             NaN             NaN             NaN
             NaN             NaN             NaN
             NaN             NaN             NaN
             NaN             NaN             NaN
             NaN             NaN             NaN
             NaN             NaN             NaN
             NaN             NaN             NaN
             NaN             NaN             NaN
             NaN             NaN             NaN
             NaN             NaN             NaN
             NaN             NaN             NaN
             NaN             NaN             NaN
             NaN             NaN             NaN
             NaN             NaN             NaN
             NaN             NaN             NaN
             NaN             NaN             NaN
             NaN             NaN             NaN
             NaN             NaN             NaN
             NaN             NaN             NaN
             NaN             NaN             NaN
             NaN             NaN             NaN
             NaN             NaN             NaN
             NaN             NaN             NaN
