Ca1 Fe4 S6 O24                          
   1.00000000000000     
     7.5877460000000001    0.1642460000000000    4.5226600000000001
     2.6407389999999999    7.1103079999999999    4.5476140000000003
     0.2324860000000000    0.1927630000000000    8.8358580000000000
   Ca   Fe   S    O 
     1     4     6    24
Direct
  0.2589224202503961  0.8027663897391069  0.5632254177603400
  0.6665698150492313  0.6342455799349680  0.6411280594197173
  0.1418836975523036  0.1529661417337804  0.1330098264420995
  0.8309044071524779  0.8425546343345369  0.8584840624213594
  0.3640667045267742  0.3499004202552494  0.3472863413561149
  0.9652517411330431  0.2493999413802055  0.5213165746490604
  0.4477289750433134  0.0298995076049005  0.7514729226794118
  0.5499223097347707  0.9678919986580403  0.2403839978417925
  0.7441829416135131  0.4559231527992580  0.0542019615265967
  0.2561467631068637  0.5297008494279047  0.9505917005584601
  0.0379922718773415  0.7395165089623618  0.4599203479762506
  0.4209639210032036  0.5682679173789020  0.7737746587271681
  0.9230104770982802  0.2931630976154521  0.0430439240297891
  0.7869225005794199  0.3797688486908123  0.6090060076898269
  0.0356763853935052  0.9356499247544494  0.3431810779090031
  0.5838573018069275  0.7784400831281599  0.3965314755170738
  0.3105883817235929  0.0116174765967982  0.9479455230061272
  0.6957979512746880  0.9644098373579427  0.0558674900603092
  0.2279961707146164  0.6077748841049004  0.3916011013597218
  0.0899098966586408  0.7047752854004941  0.9169135547414456
  0.3836029746908812  0.2226703601789486  0.6206227202113367
  0.9744387430995479  0.0476347427889496  0.6482743609266527
  0.5969448517679687  0.4012454242697761  0.2380746402423186
  0.9771413675816519  0.2857762553477938  0.3335938570430163
  0.4668026584501392  0.8870983427788200  0.6978715292232719
  0.3583913078816598  0.0090607361943987  0.2478331395329146
  0.6877339643584078  0.5147637707830184  0.8971294449502941
  0.2383265505901193  0.3683140336841563  0.9639560962515490
  0.8900878300786150  0.7115707262845626  0.4594394928096790
  0.1287576804419577  0.2686310403428854  0.5048473395787881
  0.6353260722264152  0.9922943117511902  0.7448023858193269
  0.5380802995921037  0.1093748770849051  0.2867391023119555
  0.7615378447704820  0.6158158079246960  0.0475126625081539
  0.2834320275454231  0.4945386931700909  0.1168050178486696
  0.0070508705455254  0.7057436195518384  0.6568608537682281
 
             NaN             NaN             NaN
             NaN             NaN             NaN
             NaN             NaN             NaN
             NaN             NaN             NaN
             NaN             NaN             NaN
             NaN             NaN             NaN
             NaN             NaN             NaN
             NaN             NaN             NaN
             NaN             NaN             NaN
             NaN             NaN             NaN
             NaN             NaN             NaN
             NaN             NaN             NaN
             NaN             NaN             NaN
             NaN             NaN             NaN
             NaN             NaN             NaN
             NaN             NaN             NaN
             NaN             NaN             NaN
             NaN             NaN             NaN
             NaN             NaN             NaN
             NaN             NaN             NaN
             NaN             NaN             NaN
             NaN             NaN             NaN
             NaN             NaN             NaN
             NaN             NaN             NaN
             NaN             NaN             NaN
             NaN             NaN             NaN
             NaN             NaN             NaN
             NaN             NaN             NaN
             NaN             NaN             NaN
             NaN             NaN             NaN
             NaN             NaN             NaN
             NaN             NaN             NaN
             NaN             NaN             NaN
             NaN             NaN             NaN
             NaN             NaN             NaN
