Ca2 Co4 S6 O24
1.0
7.636382 0.053011 4.464410
2.659382 7.022843 4.527033
0.211999 -0.003139 8.825925
Ca Co S O
2 4 6 24
direct
0.409137 0.634225 0.531763 Ca
0.981511 1.006466 1.005763 Ca
0.649220 0.645113 0.649672 Co
0.141913 0.149582 0.143897 Co
0.845364 0.849137 0.846120 Co
0.357307 0.348851 0.349150 Co
0.961085 0.247668 0.538613 S
0.442052 0.041672 0.749761 S
0.549439 0.955159 0.242246 S
0.745169 0.451684 0.046077 S
0.249380 0.542558 0.953521 S
0.038561 0.749677 0.453045 S
0.412074 0.560792 0.772665 O
0.894683 0.263029 0.085337 O
0.799307 0.419511 0.550648 O
0.075084 0.900148 0.266146 O
0.568150 0.776611 0.406045 O
0.255124 0.076268 0.902900 O
0.726291 0.925485 0.081074 O
0.200554 0.576258 0.447021 O
0.091960 0.730750 0.925396 O
0.439452 0.217276 0.585252 O
0.928751 0.091660 0.724773 O
0.576371 0.452112 0.216703 O
0.983123 0.197819 0.393663 O
0.463855 0.891236 0.703991 O
0.388430 0.995169 0.205989 O
0.708980 0.473276 0.892298 O
0.196238 0.394866 0.984947 O
0.872101 0.729033 0.489946 O
0.128554 0.266253 0.504559 O
0.589389 -0.010728 0.812594 O
0.532165 0.107854 0.278142 O
0.808554 0.596573 0.003011 O
0.292670 0.509695 0.107129 O
0.016681 0.801788 0.598057 O
