Ca4 V16 P24 O96
1.0
-4.514296 6.933378 8.688697
5.079531 -6.575608 8.741380
9.741198 6.926601 0.339810
Ca V P O
4 16 24 96
direct
0.507108 0.492579 0.492648 Ca
0.507096 0.992593 0.992655 Ca
1.007100 -0.007380 0.492646 Ca
0.007153 0.492605 0.992604 Ca
0.644212 0.643535 0.643152 V
0.644282 0.143538 0.143143 V
0.144280 0.143582 0.643127 V
0.144277 0.643520 0.143130 V
0.138976 0.142292 0.141326 V
0.138836 0.642383 0.641249 V
0.638980 0.642295 0.141328 V
0.638978 0.142293 0.641327 V
0.852379 0.853926 0.855355 V
0.852376 0.353907 0.355351 V
0.352387 0.353904 0.855364 V
0.352367 0.853892 0.355356 V
0.349216 0.351722 0.351955 V
0.349197 0.851710 0.851947 V
0.849197 0.851725 0.351942 V
0.849229 0.351721 0.851938 V
0.387802 0.742730 0.605685 P
0.387888 0.242781 0.105689 P
0.887876 0.242795 0.605679 P
0.887880 0.742788 0.105678 P
0.389864 0.606494 0.252296 P
0.389865 0.106496 0.752293 P
0.889862 0.106501 0.252290 P
0.889825 0.606536 0.752270 P
0.604297 0.389174 0.744411 P
0.604278 0.889180 0.244405 P
0.104295 0.889228 0.744418 P
0.104283 0.389174 0.244406 P
0.248092 0.389633 0.606260 P
0.248021 0.889614 0.106216 P
0.748009 0.889613 0.606218 P
0.748029 0.389626 0.106207 P
0.746071 0.604492 0.387810 P
0.746070 0.104500 0.887804 P
0.246071 0.104487 0.387801 P
0.246057 0.604472 0.887781 P
0.606726 0.251610 0.390722 P
0.606718 0.751624 0.890738 P
0.106642 0.751587 0.390701 P
0.106724 0.251625 0.890714 P
0.680339 0.578486 0.499569 O
0.680355 0.078470 0.999562 O
0.180347 0.078473 0.499564 O
0.180374 0.578493 0.999580 O
0.165174 0.485148 0.628542 O
0.164964 0.985108 0.128303 O
0.664960 0.985106 0.628304 O
0.664960 0.485108 0.128300 O
0.494558 0.673541 0.576827 O
0.494615 0.173571 0.076793 O
0.994610 0.173591 0.576773 O
0.994599 0.673572 0.076776 O
0.631769 0.164063 0.482062 O
0.631781 0.664053 0.982057 O
0.131328 0.663880 0.482005 O
0.131748 0.164072 0.982060 O
0.577582 0.499252 0.679185 O
0.577575 0.999261 0.179181 O
0.077544 -0.000700 0.679199 O
0.077565 0.499255 0.179192 O
0.487961 0.633112 0.168766 O
0.487966 0.133081 0.668759 O
0.987955 0.133102 0.168753 O
0.987922 0.633277 0.668702 O
0.511480 0.362711 0.829401 O
0.511458 0.862700 0.329385 O
0.011467 0.862661 0.829361 O
0.011455 0.362681 0.329378 O
0.494129 0.313599 0.415827 O
0.494125 0.813606 0.915871 O
-0.005902 0.813674 0.415823 O
0.994128 0.313626 0.915822 O
0.832717 0.511569 0.364156 O
0.832729 0.011578 0.864154 O
0.332700 0.011550 0.364150 O
0.332764 0.511566 0.864186 O
0.419211 0.497213 0.316905 O
0.419187 0.997205 0.816889 O
0.919188 0.997218 0.316897 O
0.919273 0.497239 0.816788 O
0.362938 0.826230 0.508133 O
0.362991 0.326272 0.008125 O
0.862965 0.326303 0.508139 O
0.862959 0.826290 0.008132 O
0.322182 0.416328 0.500850 O
0.322142 0.916355 1.000839 O
0.822134 0.916353 0.500844 O
0.822147 0.416376 0.000830 O
0.295486 0.660240 0.625202 O
0.295571 0.160317 0.125287 O
0.795572 0.160317 0.625293 O
0.795561 0.660322 0.125294 O
0.788182 0.594507 0.683737 O
0.788183 0.094479 0.183774 O
0.288186 0.094509 0.683758 O
0.288183 0.594471 0.183796 O
0.623316 0.304044 0.654194 O
0.623322 0.804048 0.154187 O
0.123456 0.804116 0.654175 O
0.123317 0.304044 0.154187 O
0.684794 0.785559 0.590110 O
0.684816 0.285563 0.090103 O
0.184757 0.285641 0.590136 O
0.184821 0.785559 0.090096 O
0.656313 0.620035 0.302357 O
0.656315 0.120029 0.802352 O
0.156307 0.120033 0.302354 O
0.156305 0.619828 0.802360 O
0.599152 0.690685 0.781277 O
0.599168 0.190674 0.281273 O
0.099164 0.190696 0.781267 O
0.099118 0.690762 0.281187 O
0.401707 0.309153 0.208474 O
0.401636 0.809090 0.708484 O
0.901707 0.809143 0.208479 O
0.901712 0.309137 0.708482 O
0.369866 0.693532 0.339049 O
0.369889 0.193529 0.839052 O
0.869871 0.193540 0.339042 O
0.869892 0.693553 0.839037 O
0.211601 0.401667 0.308584 O
0.211589 0.901751 0.808600 O
0.711594 0.901685 0.308579 O
0.711621 0.401685 0.808569 O
0.830518 0.869193 0.700661 O
0.830524 0.369193 0.200653 O
0.330649 0.369085 0.700642 O
0.330522 0.869199 0.200662 O
0.307145 0.210725 0.399159 O
0.307118 0.710743 0.899107 O
0.807149 0.710735 0.399157 O
0.807140 0.210745 0.899158 O
0.689692 0.343438 0.378098 O
0.689690 0.843437 0.878089 O
0.189702 0.843327 0.378181 O
0.189703 0.343445 0.878117 O
