Ca2 Cr4 S6 O24                          
   1.00000000000000     
     7.4244519999999996   -0.1008360000000000    4.5822490000000000
     2.3377409999999998    7.0542990000000003    4.5570219999999999
    -0.0701110000000000   -0.1147120000000000    9.4137029999999999
   Ca   Cr   S    O 
     2     4     6    24
Direct
  0.2603238390096806  0.8750637447041801  0.5927510135239350
 -0.0176163185261687  1.0176483914172849  0.0016415774361566
  0.6552438571878507  0.6179880234417477  0.6651111653767795
  0.1360357418779413  0.1477145858067425  0.1560637564517041
  0.8371166831459915  0.8410465255107518  0.8530452505908066
  0.3547440572769975  0.3603111011181008  0.3556196929612043
  0.9651166983160872  0.2445507934907905  0.5644313221283056
  0.4566285652431670  0.0260666210365548  0.7341921842453494
  0.5311068734766833  0.9638926097368385  0.2373869234658257
  0.7555665911574070  0.4257410754287300  0.0374900605758247
  0.2398949895429676  0.5562600277485642  0.9534856601407865
  0.0566119789612661  0.7500886606681954  0.4416814686447264
  0.4001576160380130  0.5655462188884945  0.7802327587634624
  0.8967055801203183  0.2508437198981185  0.1086609692166938
  0.7909875015693747  0.3982568359111553  0.5758986731276954
  0.0602183771314921  0.9079633736811121  0.2688745568800529
  0.5492230365921662  0.7846017689865382  0.3840575923268701
  0.2677640129051473  0.0646340661827303  0.8705169737025633
  0.7120662851026011  0.9622582775035732  0.0899589554838357
  0.2299544279340147  0.5960833594887336  0.4130601997619380
  0.0847042334563056  0.7398407553472052  0.9058753929677168
  0.4802987176409209  0.1879080180941097  0.5763623991717579
  0.9380274309576464  0.0757154539904491  0.7338402118496405
  0.5798042005971668  0.4577645719150961  0.1835503419452829
  0.0315116941565464  0.1836924116168711  0.4190309895637715
  0.4716364708150457  0.8719453067255732  0.6917000376710378
  0.3899980166561048 -0.0075995481030201  0.1785302775837810
  0.7398505812697524  0.3880949832827320  0.9111252509741190
  0.1806657132285735  0.3995879646641037  0.0102020851250652
  0.8890016733795588  0.6997140447274853  0.5092575749521303
  0.1183314944957804  0.2822815222474188  0.5546569427280486
  0.5991156671166693  0.9536130679612018  0.8094771936552595
  0.4648730142847122  0.1136972964550723  0.3056445548149246
  0.8294452480969537  0.5820382203778450  0.9494810243446624
  0.2778631051286968  0.5591426963006814  0.0831565754494924
  0.0478468652644422  0.8123394110623279  0.5652857645246746
 
             NaN             NaN             NaN
             NaN             NaN             NaN
             NaN             NaN             NaN
             NaN             NaN             NaN
             NaN             NaN             NaN
             NaN             NaN             NaN
             NaN             NaN             NaN
             NaN             NaN             NaN
             NaN             NaN             NaN
             NaN             NaN             NaN
             NaN             NaN             NaN
             NaN             NaN             NaN
             NaN             NaN             NaN
             NaN             NaN             NaN
             NaN             NaN             NaN
             NaN             NaN             NaN
             NaN             NaN             NaN
             NaN             NaN             NaN
             NaN             NaN             NaN
             NaN             NaN             NaN
             NaN             NaN             NaN
             NaN             NaN             NaN
             NaN             NaN             NaN
             NaN             NaN             NaN
             NaN             NaN             NaN
             NaN             NaN             NaN
             NaN             NaN             NaN
             NaN             NaN             NaN
             NaN             NaN             NaN
             NaN             NaN             NaN
             NaN             NaN             NaN
             NaN             NaN             NaN
             NaN             NaN             NaN
             NaN             NaN             NaN
             NaN             NaN             NaN
             NaN             NaN             NaN
