Ca2 Cr4 S6 O24
1.0
7.424452 -0.100836 4.582249
2.337741 7.054299 4.557022
-0.070111 -0.114712 9.413703
Ca Cr S O
2 4 6 24
direct
0.288693 0.839658 0.578731 Ca
1.000035 0.988823 1.017698 Ca
0.653778 0.626842 0.661850 Cr
0.136453 0.157695 0.150234 Cr
0.840879 0.842476 0.852765 Cr
0.346663 0.355908 0.360678 Cr
0.953527 0.246138 0.567549 S
0.459427 0.027808 0.735049 S
0.523146 0.972031 0.233691 S
0.750234 0.433325 0.046148 S
0.240339 0.563762 0.949196 S
0.057561 0.751627 0.443397 S
0.400358 0.571563 0.777026 O
0.903866 0.253884 0.090331 O
0.782228 0.404799 0.577640 O
0.069414 0.911674 0.270736 O
0.518771 0.787997 0.371418 O
0.275241 0.055567 0.878973 O
0.715380 0.965840 0.108890 O
0.226846 0.593869 0.413945 O
0.085525 0.747740 0.903736 O
0.470423 0.197715 0.583918 O
0.924254 0.081613 0.738195 O
0.581880 0.432542 0.204742 O
1.012708 0.186569 0.423629 O
0.475077 0.880203 0.684882 O
0.404668 0.031007 0.137182 O
0.724793 0.436043 0.903918 O
0.177657 0.409811 1.005645 O
0.886846 0.710987 0.501079 O
0.109653 0.282205 0.554086 O
0.610358 0.953776 0.799650 O
0.446523 0.105382 0.325112 O
0.811026 0.588929 -0.005429 O
0.277735 0.566725 0.079604 O
0.049970 0.804668 0.572229 O
