Ca1 V4 S6 O24
1.0
7.493908 -0.081092 4.843499
2.359928 6.742101 5.265251
-0.008547 -0.588128 8.922213
Ca V S O
1 4 6 24
direct
0.282340 0.830252 0.598828 Ca
0.653627 0.644672 0.651606 V
0.137209 0.142914 0.142397 V
0.845770 0.843792 0.849767 V
0.358207 0.353118 0.343755 V
0.959411 0.250884 0.525826 S
0.446215 0.037240 0.747142 S
0.543220 0.968690 0.237546 S
0.747278 0.447092 0.044306 S
0.244651 0.536569 0.960168 S
0.044646 0.745711 0.462277 S
0.408328 0.568612 0.782225 O
0.892624 0.266370 0.090098 O
0.818004 0.427460 0.547674 O
0.096028 0.890798 0.282702 O
0.573161 0.807564 0.411957 O
0.275493 0.088423 0.899308 O
0.696992 0.923480 0.075187 O
0.181419 0.560196 0.460849 O
0.082030 0.712798 0.927274 O
0.444316 0.192662 0.568473 O
0.924646 0.086601 0.698602 O
0.568871 0.456025 0.203965 O
0.966286 0.232898 0.369438 O
0.449393 0.872992 0.738047 O
0.358770 0.989891 0.254057 O
0.721428 0.471934 0.883093 O
0.217498 0.375460 0.988811 O
0.857635 0.760018 0.508665 O
0.147836 0.234324 0.492231 O
0.611690 -0.011397 0.778146 O
0.532960 0.139510 0.232130 O
0.800627 0.598181 0.001054 O
0.268323 0.513387 0.120020 O
0.044329 0.776249 0.611178 O
