Co4 P8                                  
   1.00000000000000     
     4.9757054235150724   -0.0000017275096805   -2.3306771240514466
    -0.0000005434651182    5.5063708652549224    0.0000026539768494
    -0.0389577393123388    0.0000027101211110    5.5522909649650503
   Co   P 
     4     8
Direct
  0.2703494273371945  0.4978503951455195  0.7853043250848302
  0.7296844105276961  0.9978737253392040  0.7146956889230935
  0.7296852137342640  0.5021267463339214  0.2146966179029803
  0.2703490157150696  0.0021493220495259  0.2853044059847392
  0.3401517785708421  0.1269755783726296  0.6813467314652186
  0.6598259701156053  0.6269572309702696  0.8186496854520726
  0.6598227141372988  0.8730412396835234  0.3186461360128376
  0.3401545457416901  0.3730216467500469  0.1813506093016741
  0.1600320149170571  0.8737398583737956  0.8646269993583999
  0.8399566523691249  0.3737244106888795  0.6353757969320029
  0.8399594518305875  0.1262772716271598  0.1353802638171331
  0.1600288050035701  0.6262625746655388  0.3646227397650108
 
  0.00000000E+00  0.00000000E+00  0.00000000E+00
  0.00000000E+00  0.00000000E+00  0.00000000E+00
  0.00000000E+00  0.00000000E+00  0.00000000E+00
  0.00000000E+00  0.00000000E+00  0.00000000E+00
  0.00000000E+00  0.00000000E+00  0.00000000E+00
  0.00000000E+00  0.00000000E+00  0.00000000E+00
  0.00000000E+00  0.00000000E+00  0.00000000E+00
  0.00000000E+00  0.00000000E+00  0.00000000E+00
  0.00000000E+00  0.00000000E+00  0.00000000E+00
  0.00000000E+00  0.00000000E+00  0.00000000E+00
  0.00000000E+00  0.00000000E+00  0.00000000E+00
  0.00000000E+00  0.00000000E+00  0.00000000E+00
