Ca1 V4 S6 O24                           
   1.00000000000000     
     7.4294739999999999   -0.0635850000000000    4.9532369999999997
     2.3958710000000001    6.6560020000000000    5.4092630000000002
     0.0305850000000000   -0.5953800000000000    8.9217890000000004
   Ca   V    S    O 
     1     4     6    24
Direct
  0.2547338751099106  0.8606571181921662  0.5987958570885272
  0.6548592371810562  0.6439195606418516  0.6472948408659319
  0.1385146820380268  0.1532206928293880  0.1384169498892756
  0.8385219897565246  0.8358205844354276  0.8492154783573851
  0.3587465009174456  0.3441302725114552  0.3578007451658858
  0.9570845907393588  0.2544890532249466  0.5178543384604188
  0.4406534031942990  0.0282509548082827  0.7520909399480906
  0.5484536162806561  0.9653898761152935  0.2345608364191835
  0.7449889091060402  0.4523185048126099  0.0549961943411582
  0.2565420855718847  0.5236438308783881  0.9576980546980536
  0.0523046165601959  0.7423189871103684  0.4575020319819718
  0.4191873102280817  0.5685804726040528  0.7765141298549404
  0.9397710961147984  0.3028183481867418  0.0214048561497840
  0.7946447013364537  0.3948903341881250  0.6020906485576957
  0.0308248193986584  0.9446062410558639  0.3348635164186245
  0.5943524761321312  0.7769481080169723  0.3908291347200742
  0.3084629240965411  0.0075992854473731  0.9503196966448536
  0.6862933787878387  0.9662307176218573  0.0448472747352436
  0.2375487339005094  0.6131756577804958  0.3713105742055672
  0.0836876193411323  0.6986433691450097  0.9291702369589082
  0.3772622083563130  0.2257948061561110  0.6199948450730416
  0.9402516831452825  0.0614060718076556  0.6475931037612803
  0.6129707811069840  0.3763148432440388  0.2445332436455065
  0.9678246645373643  0.3018051251059660  0.3286691904557246
  0.4434758617180578  0.8949024240839462  0.6975182515267978
  0.3532271019931319 -0.0004197864230791  0.2578347815378603
  0.6804369269826253  0.5137354893790778  0.9050362582263914
  0.2521592214142216  0.3573222668938104  0.9679847557332196
  0.8951499930718507  0.7070924592051431  0.4884174633809937
  0.1411334002728683  0.2286699979141898  0.5079720040267294
  0.6369721553006887  0.9729021543649917  0.7310595092687789
  0.5357953761959493  0.1130314936714685  0.2706278350887975
  0.7526471051748242  0.6164317734961534  0.0488903305081723
  0.2810005579003932  0.4902125753543257  0.1211073845760390
  0.0474291484311159  0.7102685114298467  0.6426465567078906
 
             NaN             NaN             NaN
             NaN             NaN             NaN
             NaN             NaN             NaN
             NaN             NaN             NaN
             NaN             NaN             NaN
             NaN             NaN             NaN
             NaN             NaN             NaN
             NaN             NaN             NaN
             NaN             NaN             NaN
             NaN             NaN             NaN
             NaN             NaN             NaN
             NaN             NaN             NaN
             NaN             NaN             NaN
             NaN             NaN             NaN
             NaN             NaN             NaN
             NaN             NaN             NaN
             NaN             NaN             NaN
             NaN             NaN             NaN
             NaN             NaN             NaN
             NaN             NaN             NaN
             NaN             NaN             NaN
             NaN             NaN             NaN
             NaN             NaN             NaN
             NaN             NaN             NaN
             NaN             NaN             NaN
             NaN             NaN             NaN
             NaN             NaN             NaN
             NaN             NaN             NaN
             NaN             NaN             NaN
             NaN             NaN             NaN
             NaN             NaN             NaN
             NaN             NaN             NaN
             NaN             NaN             NaN
             NaN             NaN             NaN
             NaN             NaN             NaN
