Ca1 V4 S6 O24                           
   1.00000000000000     
     7.4294739999999999   -0.0635850000000000    4.9532369999999997
     2.3958710000000001    6.6560020000000000    5.4092630000000002
     0.0305850000000000   -0.5953800000000000    8.9217890000000004
   Ca   V    S    O 
     1     4     6    24
Direct
  0.2565913961037920  0.8609080757122621  0.5959930474213818
  0.6551587567501250  0.6453481818759271  0.6443595975547050
  0.1393451350857481  0.1529772223047771  0.1381999073600658
  0.8371217157848919  0.8355410959636895  0.8516908847550019
  0.3588924648002987  0.3426128598336169  0.3585245058505314
  0.9674129846317671  0.2453539705576141  0.5131736844011281
  0.4421158479996776  0.0258459209597429  0.7534314201915462
  0.5474737609813369  0.9683815728296149  0.2392306335394392
  0.7472650965709445  0.4578463085294708  0.0492983177950999
  0.2562013119338096  0.5219212151287280  0.9621360141986915
  0.0438168733798105  0.7464075283218086  0.4600301752229836
  0.4191058800152030  0.5695392716075673  0.7731628577896106
  0.9364040491129981  0.3045534733167499  0.0254122302092964
  0.7928967752662633  0.3921358609068645  0.6080730255707639
  0.0367262466187746  0.9423842958665394  0.3388854350728759
  0.5943523474977241  0.7749478250068405  0.3892518563300050
  0.3038703200214395  0.0099894531016965  0.9521283481181677
  0.6939529299741347  0.9677860446023497  0.0386745517952769
  0.2372431350334078  0.6102706284179712  0.3732804169270743
  0.0822415612770617  0.7000605797696905  0.9285689697621672
  0.3792667339299425  0.2276133536311881  0.6174943943569637
  0.9458684372719467  0.0597436529918545  0.6437496812932529
  0.6066234136178265  0.3778456137014896  0.2487868839923276
  0.9703669257735469  0.3007261137106679  0.3306342175197423
  0.4421439409526799  0.8946335067555290  0.6986227813282666
  0.3542557727866444  1.0029440843807598  0.2531102289630109
  0.6794292906912576  0.5158040954484867  0.9061186844792891
  0.2518461026744623  0.3581786299124744  0.9640716424560674
  0.8945733614586432  0.7156174157130943  0.4792561191642760
  0.1422626003291137  0.2273656597332638  0.5056506325912449
  0.6345503925702102 -0.0271949407144539  0.7363999026426368
  0.5376451778499465  0.1097292828995995  0.2735917987038292
  0.7496432423982888  0.6155605809121950  0.0524884955645652
  0.2811585046341022  0.4880921827403473  0.1171249707547437
  1.0400739550540294  0.7056769663630424  0.6468616788878343
 
             NaN             NaN             NaN
             NaN             NaN             NaN
             NaN             NaN             NaN
             NaN             NaN             NaN
             NaN             NaN             NaN
             NaN             NaN             NaN
             NaN             NaN             NaN
             NaN             NaN             NaN
             NaN             NaN             NaN
             NaN             NaN             NaN
             NaN             NaN             NaN
             NaN             NaN             NaN
             NaN             NaN             NaN
             NaN             NaN             NaN
             NaN             NaN             NaN
             NaN             NaN             NaN
             NaN             NaN             NaN
             NaN             NaN             NaN
             NaN             NaN             NaN
             NaN             NaN             NaN
             NaN             NaN             NaN
             NaN             NaN             NaN
             NaN             NaN             NaN
             NaN             NaN             NaN
             NaN             NaN             NaN
             NaN             NaN             NaN
             NaN             NaN             NaN
             NaN             NaN             NaN
             NaN             NaN             NaN
             NaN             NaN             NaN
             NaN             NaN             NaN
             NaN             NaN             NaN
             NaN             NaN             NaN
             NaN             NaN             NaN
             NaN             NaN             NaN
