Ca2 V4 O10                              
   1.00000000000000     
    11.3377166176716688   -0.0000000578179898    0.0000025063617866
    -0.0000000179180277    3.5798450508487951   -0.0000001860890481
     0.0000010985402630   -0.0000002596602381    4.9463192621198777
   Ca   V    O 
     2     4    10
Direct
  0.2500122552020798  0.7499999976019095  0.8502773847740068
  0.7500121704340581  0.2499999886810451  0.1497227312869422
  0.9035547880246924  0.7500000273902185  0.6115792982170301
  0.5964389256917044  0.7499999359574331  0.6115252119593391
  0.0964391680694539  0.2500000120162383  0.3884750287690727
  0.4035544608224149  0.2500000305883634  0.3884202796750328
  0.8761730175464856  0.7500000383356545  0.9429682670759404
  0.6238607589617953  0.7499999914621395  0.9428957965021870
  0.1238608702854601  0.2499999743027306  0.0571040200334078
  0.3761729798613249  0.2500000034922272  0.0570310266060129
  0.0746405169505712  0.7499999739299064  0.5341105568055556
  0.4253238299261990  0.7499999780884246  0.5340844815713570
  0.9253239027023915  0.2500000416736841  0.4659155864119738
  0.5746404495913797  0.2499999948852710  0.4658899174559797
  0.7499959011384660  0.7499999963266288  0.4514030572498512
  0.2499960047915230  0.2500000152681181  0.5485973556063110
 
  0.00000000E+00  0.00000000E+00  0.00000000E+00
  0.00000000E+00  0.00000000E+00  0.00000000E+00
  0.00000000E+00  0.00000000E+00  0.00000000E+00
  0.00000000E+00  0.00000000E+00  0.00000000E+00
  0.00000000E+00  0.00000000E+00  0.00000000E+00
  0.00000000E+00  0.00000000E+00  0.00000000E+00
  0.00000000E+00  0.00000000E+00  0.00000000E+00
  0.00000000E+00  0.00000000E+00  0.00000000E+00
  0.00000000E+00  0.00000000E+00  0.00000000E+00
  0.00000000E+00  0.00000000E+00  0.00000000E+00
  0.00000000E+00  0.00000000E+00  0.00000000E+00
  0.00000000E+00  0.00000000E+00  0.00000000E+00
  0.00000000E+00  0.00000000E+00  0.00000000E+00
  0.00000000E+00  0.00000000E+00  0.00000000E+00
  0.00000000E+00  0.00000000E+00  0.00000000E+00
  0.00000000E+00  0.00000000E+00  0.00000000E+00
