Ca2 Fe6 O10                             
   1.00000000000000     
     3.0146240516789864    0.0042954554012393    0.0027468519476996
    -1.4937931737911179    4.9352027035832755   -0.0274157985669947
    -0.0336393306804221   -0.0392811291796303   12.5344965322362327
   Ca   Fe   O 
     2     6    10
Direct
  0.5238527948007612  0.0466650769545034  0.2525724627721363
  0.4785573772374095  0.9618958421350328  0.7461890076261207
  0.0032032226106867  0.9945448644660292  0.4975007250883509
  0.0015704285849383  0.0047949550041648  0.0023255603135478
  0.2798352843271884  0.5402591231526709  0.3948372687448048
  0.7250158238276094  0.4547606076642889  0.6052668450750678
  0.2672708463317278  0.5361088601267617  0.1122731084553469
  0.7342714229048952  0.4718384370215765  0.8877790939773404
  0.1919728595288427  0.3929856483171735  0.2579882944222162
  0.8098977912213602  0.6193930610716022  0.7502365733240003
  0.6469089456296050  0.2946096109948391  0.0589753881588316
  0.3493881321675993  0.7008036474151785  0.9540042033653292
  0.6026557230743019  0.2696919279906530  0.4458744689281259
  0.3823057907193178  0.7326960098951859  0.5358648740617736
  0.9179892806155507  0.7942752813270290  0.3676249574529770
  0.0840306569198540  0.1795221511446894  0.6259251926356060
  0.9032261292488519  0.8077928700031634  0.1414402801490047
  0.0980474902494854  0.1973620253154652  0.8633216954494196
 
  0.00000000E+00  0.00000000E+00  0.00000000E+00
  0.00000000E+00  0.00000000E+00  0.00000000E+00
  0.00000000E+00  0.00000000E+00  0.00000000E+00
  0.00000000E+00  0.00000000E+00  0.00000000E+00
  0.00000000E+00  0.00000000E+00  0.00000000E+00
  0.00000000E+00  0.00000000E+00  0.00000000E+00
  0.00000000E+00  0.00000000E+00  0.00000000E+00
  0.00000000E+00  0.00000000E+00  0.00000000E+00
  0.00000000E+00  0.00000000E+00  0.00000000E+00
  0.00000000E+00  0.00000000E+00  0.00000000E+00
  0.00000000E+00  0.00000000E+00  0.00000000E+00
  0.00000000E+00  0.00000000E+00  0.00000000E+00
  0.00000000E+00  0.00000000E+00  0.00000000E+00
  0.00000000E+00  0.00000000E+00  0.00000000E+00
  0.00000000E+00  0.00000000E+00  0.00000000E+00
  0.00000000E+00  0.00000000E+00  0.00000000E+00
  0.00000000E+00  0.00000000E+00  0.00000000E+00
  0.00000000E+00  0.00000000E+00  0.00000000E+00
