Ca1 Mn4 S6 O24
1.0
7.840248 0.020667 4.849922
2.742119 7.062806 4.703374
0.496309 0.064000 8.898953
Ca Mn S O
1 4 6 24
direct
0.256491 0.866228 0.615761 Ca
0.661883 0.642455 0.646455 Mn
0.141633 0.155101 0.139863 Mn
0.819822 0.848331 0.844571 Mn
0.362208 0.357850 0.350739 Mn
0.961071 0.243420 0.525480 S
0.429232 0.037747 0.755545 S
0.546651 0.968657 0.233488 S
0.747386 0.459766 0.053125 S
0.254717 0.517956 0.958713 S
0.045740 0.757600 0.449733 S
0.418825 0.563856 0.779083 O
0.935941 0.322557 0.017503 O
0.798522 0.386663 0.599764 O
0.026090 0.959363 0.326209 O
0.595697 0.787139 0.386178 O
0.301130 0.013869 0.963484 O
0.683674 0.969635 0.035193 O
0.230985 0.632833 0.368593 O
0.089157 0.683594 0.929909 O
0.362240 0.229623 0.630855 O
0.941594 0.050102 0.658089 O
0.614210 0.390858 0.248896 O
0.982314 0.282092 0.331203 O
0.429073 0.898620 0.712354 O
0.359145 0.992983 0.264909 O
0.684882 0.514267 0.907116 O
0.256444 0.347646 0.963620 O
0.898525 0.718015 0.475142 O
0.134369 0.223015 0.517655 O
0.619839 -0.010960 0.728230 O
0.536610 0.123584 0.256608 O
0.745321 0.636280 0.041872 O
0.266030 0.481862 0.130785 O
0.022734 0.729585 0.644176 O
