Ca4 V4 P6 O24                           
   1.00000000000000     
     2.5898409999999998    7.2738560000000003    4.3686809999999996
     0.0068270000000000    0.0382370000000000    8.8130260000000007
     7.6900290000000000    0.0290800000000000    4.3109940000000000
   Ca   V    P    O 
     4     4     6    24
Direct
  0.2818221499577188  0.7848982840517671  0.5554856580409665
  0.9578307113762631  0.0071308394731697  0.0142193654750713
  0.3883627725691799  0.7454432022360352  0.1000081841022927
  0.1331323323851350  0.3823926202144866  0.7508174085260854
  0.6531671118031522  0.6194136337617669  0.6444119308288629
  0.1452574677082162  0.1409732784754120  0.1547222678763953
  0.8437981500893251  0.8629261703528062  0.8453088671205946
  0.3584577194785504  0.3509627970014108  0.3496963368311685
  0.2455576486657816  0.5505482131809969  0.9505699691539911
  0.0313501472468838  0.7534890368105075  0.4493442089742731
  0.9588921822391967  0.2475253370041504  0.5585066176419532
  0.4585793634030640  0.0281564815124316  0.7493619179231186
  0.5513867078697363  0.9486642069034479  0.2431175932967244
  0.7544035986111827  0.4522878959813688  0.0282895171024170
  0.5651615127355014  0.7993238296100618  0.4299684297391103
  0.2645870951018608  0.0628347748663184  0.9090499755309775
  0.4140345924952685  0.5577496420943199  0.7711201461761962
  0.9171070666196528  0.2702685452141019  0.0542821811821848
  0.7812437434057498  0.4118785084814163  0.5558118865456202
  0.0675812442822050  0.8968285341603958  0.2547857048289544
  0.9136071938516191  0.0888588220519262  0.7446270686801569
  0.5865422223925486  0.4608126331115548  0.2025647824254687
  0.7360786063469271  0.8953087388028443  0.0945911020891224
  0.2251488160262140  0.5970225362569306  0.4442353638382031
  0.0953138135834354  0.7413832490219097  0.8939423566906447
  0.4386358497817713  0.2006785293755841  0.5856229822698727
  0.1925097753953495  0.3934003432230761  0.9867158794488105
  0.8854251614404425  0.6834999729900100  0.5020097597097682
  0.0379807892209235  0.1762596354900610  0.4015887132906585
  0.4887494764271720  0.8441495674677288  0.7430315577632041
  0.3934602006371134  0.9326089515656441  0.2251820749413506
  0.7072561519882464  0.4651925301358902  0.8766223750850158
  0.2741930058314421  0.5440784852663142  0.1106782710531130
  0.9942256337863407  0.8273319824699840  0.5933835186472491
  0.1064682321186748  0.2892654597442074  0.5627283924543121
  0.6010837018918088  0.9941814387637492  0.8206498434933077
  0.5074901888646254  0.1370563566901284  0.2410271963982624
  0.8241472457508378  0.6120176491002914  0.9530582836915313
 
             NaN             NaN             NaN
             NaN             NaN             NaN
             NaN             NaN             NaN
             NaN             NaN             NaN
             NaN             NaN             NaN
             NaN             NaN             NaN
             NaN             NaN             NaN
             NaN             NaN             NaN
             NaN             NaN             NaN
             NaN             NaN             NaN
             NaN             NaN             NaN
             NaN             NaN             NaN
             NaN             NaN             NaN
             NaN             NaN             NaN
             NaN             NaN             NaN
             NaN             NaN             NaN
             NaN             NaN             NaN
             NaN             NaN             NaN
             NaN             NaN             NaN
             NaN             NaN             NaN
             NaN             NaN             NaN
             NaN             NaN             NaN
             NaN             NaN             NaN
             NaN             NaN             NaN
             NaN             NaN             NaN
             NaN             NaN             NaN
             NaN             NaN             NaN
             NaN             NaN             NaN
             NaN             NaN             NaN
             NaN             NaN             NaN
             NaN             NaN             NaN
             NaN             NaN             NaN
             NaN             NaN             NaN
             NaN             NaN             NaN
             NaN             NaN             NaN
             NaN             NaN             NaN
             NaN             NaN             NaN
             NaN             NaN             NaN
