Ca4 V4 P6 O24                           
   1.00000000000000     
     2.5898409999999998    7.2738560000000003    4.3686809999999996
     0.0068270000000000    0.0382370000000000    8.8130260000000007
     7.6900290000000000    0.0290800000000000    4.3109940000000000
   Ca   V    P    O 
     4     4     6    24
Direct
  0.2818045836828047  0.7848993679107924  0.5554419965924734
  0.9578360235974295  0.0071327731904680  0.0142152868726490
  0.3883518201714342  0.7455187658141239  0.1000051492759653
  0.1330653222968082  0.3824143492873877  0.7509286962119893
  0.6532001356280919  0.6193947071255871  0.6443866990634516
  0.1452445975649885  0.1409570891451813  0.1547290633434924
  0.8436831052131022  0.8629084043885450  0.8452718580501688
  0.3584643020457944  0.3509482357963715  0.3496947602775073
  0.2455862135542757  0.5504913764707586  0.9505393751942576
  0.0313546475547157  0.7535360250084878  0.4493710943686799
  0.9588952823501325  0.2474683082839627  0.5585045935759745
  0.4585300687087808  0.0281112131787243  0.7493888175201191
  0.5514468047908653  0.9486257771204969  0.2430602710129490
  0.7544536177712858  0.4522817216338627  0.0282898762854502
  0.5651573115403085  0.7993037830306033  0.4299651917933484
  0.2646202284519646  0.0628197384412793  0.9091113938778592
  0.4140165223091599  0.5577540440594191  0.7711231043899567
  0.9171718403972265  0.2702469130989508  0.0542936978601786
  0.7812589508004838  0.4118449488022711  0.5558190517291223
  0.0675908532376434  0.8968900057713584  0.2547610282769278
  0.9135624021494761  0.0888533682455572  0.7446484608539117
  0.5866097321168309  0.4608493060601517  0.2025305136003873
  0.7360493042404290  0.8953354434630411  0.0946178818906896
  0.2251212741717155  0.5971014671666118  0.4442574435110207
  0.0951932762988725  0.7414091290597579  0.8939408559595919
  0.4386939930732282  0.2006145010128722  0.5857457333739405
  0.1924842861142263  0.3933710400360805  0.9867301480766167
  0.8854082861688631  0.6835335111310089  0.5020106670835865
  0.0379739508941859  0.1762483059832715  0.4015464496920575
  0.4887544441810512  0.8441451973040262  0.7430497863061521
  0.3934355059610171  0.9326339752732815  0.2251448584737939
  0.7072851839597799  0.4652216744605756  0.8766028861522577
  0.2741471435433246  0.5441662446056861  0.1105812933806326
  0.9942381656243953  0.8273348703244671  0.5933437194199631
  0.1063760837993299  0.2892295639602661  0.5628185679554867
  0.6012664063597167  0.9941726577696023  0.8206588932541581
  0.5075139796619308  0.1369887543220117  0.2409932056413800
  0.8241841035659896  0.6120456035830767  0.9530151930779996
 
             NaN             NaN             NaN
             NaN             NaN             NaN
             NaN             NaN             NaN
             NaN             NaN             NaN
             NaN             NaN             NaN
             NaN             NaN             NaN
             NaN             NaN             NaN
             NaN             NaN             NaN
             NaN             NaN             NaN
             NaN             NaN             NaN
             NaN             NaN             NaN
             NaN             NaN             NaN
             NaN             NaN             NaN
             NaN             NaN             NaN
             NaN             NaN             NaN
             NaN             NaN             NaN
             NaN             NaN             NaN
             NaN             NaN             NaN
             NaN             NaN             NaN
             NaN             NaN             NaN
             NaN             NaN             NaN
             NaN             NaN             NaN
             NaN             NaN             NaN
             NaN             NaN             NaN
             NaN             NaN             NaN
             NaN             NaN             NaN
             NaN             NaN             NaN
             NaN             NaN             NaN
             NaN             NaN             NaN
             NaN             NaN             NaN
             NaN             NaN             NaN
             NaN             NaN             NaN
             NaN             NaN             NaN
             NaN             NaN             NaN
             NaN             NaN             NaN
             NaN             NaN             NaN
             NaN             NaN             NaN
             NaN             NaN             NaN
