Ca4 Ni4 P6 O24                          
   1.00000000000000     
     2.5416089999999998    7.2669329999999999    4.3707599999999998
    -0.0453690000000000    0.0540390000000000    8.6763829999999995
     7.5922359999999998    0.0757470000000000    4.2575609999999999
   Ca   Ni   P    O 
     4     4     6    24
Direct
  0.5336057942669714  0.4801525323463056  0.5101263219812273
  0.9509702648901895 -0.0048439961983564  0.0168649498182826
  0.3761840443900053  0.7461822298295876  0.1142750997429888
  0.1184506114817871  0.3902933904419741  0.7587897669873569
  0.6320889443081773  0.6646031592898874  0.6389573991709203
  0.1307653672289201  0.1460514733845493  0.1522758544056555
  0.8531228452688719  0.8633849994671696  0.8394102869223352
  0.3353812516841740  0.3407509164043717  0.3608319326107789
  0.2441166358982342  0.5520747020419813  0.9528975274608674
  0.0428696541342936  0.7617343732393891  0.4633510671633528
  0.9533074251191783  0.2542123887092559  0.5623253669435506
  0.4497272916357662  0.0360431860358242  0.7485926931308305
  0.5305484122383529  0.9444164446314844  0.2456055773208300
  0.7491397698551140  0.4842763555751179  0.0200987378679797
  0.5384165713972364  0.7647449661986558  0.4168496253360660
  0.2503211592606577  0.0477818787265925  0.8982699386436189
  0.4151456580545246  0.5533697066137524  0.7757887394917314
  0.8760596296164910  0.2807929828076583  0.0248020816951973
  0.7816256399764383  0.4327855733010906  0.5555302846246994
  0.0551057928570731  0.8877192362105364  0.2596427272706462
  0.8895164523049373  0.1108472776850970  0.7516761040500707
  0.6257316650587187  0.4985833871016544  0.2136532601482521
  0.7228812258853017  0.8997334957967255  0.0956767173480094
  0.2374851351225723  0.6011915885217810  0.4481197618894832
  0.0936721876960441  0.7446697893307898  0.9167131416975329
  0.4352845138112257  0.2384626832075089  0.6282936095020644
  0.1986735167375855  0.3904558990946833  0.9824145363755900
  0.9005932675480587  0.6644311738464878  0.5451624926931294
  0.0132209781567911  0.2100338451732272  0.3935115784933998
  0.4864654950868552  0.9296429278721645  0.6313947678713909
  0.3794417955423620  0.9621471629870476  0.1939417209832758
  0.6201629356565510  0.5618179934502033  0.9175534328133013
  0.2788463018389243  0.5302616159699923  0.1194483707522306
  0.0078717340338741  0.8581845756331561  0.5809746775512586
  0.1030816985839540  0.2866475788590343  0.5733866841459951
  0.5877045539365328  0.9431378442675895  0.8452047849386719
  0.4965590122697360  0.1135903182927255  0.2777144040094917
  0.8798195510653963  0.5964371948802439  0.9213669138419505
 
             NaN             NaN             NaN
             NaN             NaN             NaN
             NaN             NaN             NaN
             NaN             NaN             NaN
             NaN             NaN             NaN
             NaN             NaN             NaN
             NaN             NaN             NaN
             NaN             NaN             NaN
             NaN             NaN             NaN
             NaN             NaN             NaN
             NaN             NaN             NaN
             NaN             NaN             NaN
             NaN             NaN             NaN
             NaN             NaN             NaN
             NaN             NaN             NaN
             NaN             NaN             NaN
             NaN             NaN             NaN
             NaN             NaN             NaN
             NaN             NaN             NaN
             NaN             NaN             NaN
             NaN             NaN             NaN
             NaN             NaN             NaN
             NaN             NaN             NaN
             NaN             NaN             NaN
             NaN             NaN             NaN
             NaN             NaN             NaN
             NaN             NaN             NaN
             NaN             NaN             NaN
             NaN             NaN             NaN
             NaN             NaN             NaN
             NaN             NaN             NaN
             NaN             NaN             NaN
             NaN             NaN             NaN
             NaN             NaN             NaN
             NaN             NaN             NaN
             NaN             NaN             NaN
             NaN             NaN             NaN
             NaN             NaN             NaN
