Ca19 V16 P24 O96                        
   1.00000000000000     
    -5.1857949999999997    7.3576940000000004    8.8857540000000004
     5.0961350000000003   -7.2734019999999999    8.7386450000000000
    10.2869240000000008    7.3542800000000002   -0.1516770000000000
   Ca   V    P    O 
    19    16    24    96
Direct
  0.5230910650075342  0.5348340841799062  0.4743849250365985
  0.5061493335876011  0.9785160810015470  0.0179563882467793
 -0.0090230527832243  0.9759399358805684  0.5309263123505823
  0.0017835444325486  0.4805984933746555  0.0179258542447711
  0.4816089049912892  0.0091484664365475  0.4886914050583495
  0.4782479825998204  0.5246266163284614  0.9847785833977331
  0.9740173406435298  0.5185345753909966  0.4899282087168275
  0.9781656694146662  0.0136690913343299  0.9953766547121418
  0.5663569659543638  0.4174589771518746  0.2339475679748054
  0.5656735261793042  0.9160861771936383  0.7370965970500825
  0.0727349369284780  0.9181825760441602  0.2454933956058640
  0.0698466246725864  0.4129997889897076  0.7359853724606236
  0.2563850156544101  0.5799155774025898  0.4299134433078669
  0.2582028918810371  0.0822612093103164  0.9285072963620584
  0.7460682756559022  0.0762550751475256  0.4201767699166805
  0.7524954389885805  0.5796554742614718  0.9241539896125333
  0.5792232413505869  0.2542701608020349  0.9187549981933620
  0.0757083637927134  0.2462870642285794  0.4204991053741273
  0.0753348583885718  0.7480180103782904  0.9193512104801710
  0.6456687592843845  0.6454544909544133  0.6519469528950577
  0.6432661084053629  0.1372241162706964  0.1453169461687494
  0.1478864930585833  0.1395899821656042  0.6412721709871987
  0.1449136516471340  0.6408886043575981  0.1397808669413948
  0.1453350968098099  0.1478667847540419  0.1451816158005565
  0.1452605509339896  0.6471081786095045  0.6448051563062602
  0.6461257393461977  0.6476653382965176  0.1534338130748961
  0.6451392644288788  0.1478089884558896  0.6456977602483999
  0.8578914021218847  0.8615502903378681  0.8421863620980039
  0.8526061571511011  0.3536676353584567  0.3500983690439297
  0.3543592901846566  0.3560990644323549  0.8464389788614154
  0.3535394178727826  0.8534390537239633  0.3529074564706747
  0.3519034952601825  0.3475439670754029  0.3519075468707143
  0.3508555985447551  0.8495745646423435  0.8535394551936965
  0.8486524671274422  0.8481343292281113  0.3443789909692359
  0.8499102610925204  0.3502554049198822  0.8491338849474775
  0.4001984627077165  0.7524746720197919  0.5966685339043932
  0.4024433796081573  0.2492412616166605  0.0930083449786578
  0.9002691446295964  0.2462333698115774  0.5938765754945052
  0.9005892102632544  0.7505089389477295  0.0928788860861255
  0.3958633263642007  0.5998484734555025  0.2430719012291508
  0.4038668439595867  0.1017826828413469  0.7546265816147374
  0.9017624460998084  0.1016647922533129  0.2541099268951704
  0.9028109479376303  0.6023484724581312  0.7545588075382178
  0.6050035450553076  0.4073243222175927  0.7515085919865346
  0.6002185595105752  0.8980560657726060  0.2587463919980522
  0.1103926836793519  0.9052244153641420  0.7618543641201402
  0.1055163781694148  0.4054076134297153  0.2599079743859378
  0.2435564365718978  0.3956192840185230  0.5912540780817660
  0.2424695291633945  0.8938977426773248  0.0953208783714186
  0.7542160791404435  0.9006987181707143  0.6013523155540423
  0.7433749936604050  0.3957599363328513  0.0952058426817710
  0.7435075895060725  0.5981776490148581  0.3930695153345750
  0.7363754886910865  0.0925344454098387  0.8893882219694988
  0.2360438688856040  0.0912780778806890  0.3917895800190388
  0.2339614699030372  0.5911136051419212  0.8884103980664896
  0.5995510073588454  0.2447223472945664  0.3941716656851643
  0.6016549886055712  0.7449858351144111  0.8948877904827540
  0.1025655849352226  0.7520787292579868  0.3955637246652933
  0.1025736629603081  0.2469338407911960  0.8923811055387437
  0.6842477805815402  0.6150037113447671  0.4972875592900239
  0.6579548751848391  0.0826602935611842  0.9830597601137098
  0.1551142573839900  0.0778921488343851  0.4832548131603000
  0.1544802104467520  0.5805505342778363  0.9814937083965550
  0.1600482268298570  0.4881795927869441  0.5763793033151634
  0.1622847740518145  0.9880476480311616  0.0791931765419719
  0.6695663609855513  0.9907307735059726  0.5818738622388040
  0.6628871813771166  0.4897776816295028  0.0786325164330445
  0.4926028390365151  0.6734969125701408  0.5873073980051889
  0.4897342672247487  0.1643425334769332  0.0726641763579172
  0.9897010909948205  0.1627884696729626  0.5766856707356512
  0.9885886620874330  0.6657631521691836  0.0750310831414099
  0.5848964477699103  0.1680759887905508  0.4882761300950550
  0.5977947345052413  0.6736128381147587  0.9933839416224897
  0.0921944579963866  0.6645208820118518  0.4803371721754370
  0.0898854916505835  0.1617464669809899  0.9793372886832692
  0.5988759464902109  0.4840503572072163  0.6595577003577809
  0.5940334584132811  0.9811160155124181  0.1695858530342577
  0.1002363993991617  0.9820964734843919  0.6709748054714078
  0.0918643310302012  0.4841678194463898  0.1706340649197011
  0.4889718843460235  0.5849900149457209  0.1651080949048076
  0.4856696442733538  0.0787193316022523  0.6674509294986164
  0.9861243697483791  0.0790456917325916  0.1691124330210041
  0.9829554702160181  0.5801325403349092  0.6656188194732171
  0.5102512727474808  0.4192592628036123  0.8299846635896186
  0.5045863769099358  0.9147989699512431  0.3317292396422287
  0.0169626617334964  0.9175705353502907  0.8404944743197180
  0.0118358643369417  0.4153783555550662  0.3389885441501860
  0.5216913699798901  0.3390835812424756  0.3970142928856036
  0.5144655670841328  0.8301155457487541  0.9002170625018945
  0.0120196946544575  0.8337103935173923  0.4052432943095794
  0.0177484445917632  0.3345118444089971  0.9039267394513826
  0.8167094164385094  0.5021638411160524  0.4078614539040156
  0.8279155486463172  0.0165848392605743  0.9023779521126810
  0.3262944278431046  0.0134973519140827  0.4012067914317820
  0.3231089259532549  0.5121688292029676  0.8998789422409196
  0.4118194768542808  0.5041289666666444  0.3221696382349775
  0.4185908444662482  0.0098437455809260  0.8378961127252421
  0.9137084996974686  0.0100227397242189  0.3375544992488642
  0.9193107179239287  0.5104554107799818  0.8372638458834193
  0.4100394443872056  0.8365405711263357  0.5090260327763528
  0.4231192207500202  0.3349572244950513  0.0057415896521331
  0.9207823365829664  0.3298104594717823  0.5052862145641360
  0.9174734196532454  0.8310647045966323  0.0014047369508390
  0.3292810855454551  0.4171503206170395  0.5083140695430552
  0.3311124017897730  0.9140503438566770  0.0145543946423349
  0.8195731730521513  0.8998096933893326  0.4989319477651489
  0.8278593760252309  0.4123144169329509  0.0093863900730949
  0.2982018695236604  0.6847458741648202  0.5843002341549154
  0.2970400880214655  0.1892243175542861  0.0811291979318595
  0.7965157790512253  0.1840482740955294  0.5802136697538905
  0.7958676112127308  0.6892013736495634  0.0842222570693557
  0.7898399871457368  0.6006788878585833  0.7181607656984206
  0.7914149578197744  0.1015103768802309  0.2103753309683851
  0.2921311754706198  0.1023971670014547  0.7145835461435369
  0.2944175361088391  0.5924208027309376  0.1815757777189276
  0.1072640586328725  0.2901042081706005  0.2209843360520654
  0.1110722207129875  0.7892667949189086  0.7248246830376385
  0.5984380441300432  0.7879480101435222  0.2092874686913921
  0.6076362310057188  0.2900388371626229  0.7184446037094748
  0.6842709807523283  0.8051397793984348  0.6299967713178349
  0.6725569130825737  0.2952619448130226  0.0818527245036835
  0.1730648035340292  0.2947325051850820  0.5743964224984416
  0.1733951109896847  0.7940425727786263  0.0733805235814149
  0.6554758386885398  0.5694332070715703  0.3104412360786021
  0.6685691987455754  0.0657891234970577  0.7910921628817907
  0.1672062448180531  0.0722144028631406  0.2921159534066342
  0.1638006979700905  0.5688992683779248  0.7907687795692225
  0.5853572965283360  0.6658064582621933  0.8030723210889875
  0.5852094890472722  0.1746570464925218  0.2953114112580978
  0.0897628562716483  0.1947862131288977  0.7842661497726604
  0.0993462390999824  0.6985563032527149  0.2871023150511069
  0.4154338321736747  0.3076927932250523  0.1988630638774333
  0.4083938691937442  0.8157057068922853  0.7015909416153292
  0.9168301063045898  0.8165277060027796  0.1945841171427079
  0.9114033790403400  0.3091394695709639  0.6979619329825411
  0.3972032426594756  0.6945295233387034  0.3211932520603203
  0.4249349985314390  0.2033856163167246  0.8216342034835290
  0.9228016227131781  0.2040964601333465  0.3191347833556021
  0.9241288632619761  0.7051980968027490  0.8187825093611815
  0.2038872302451719  0.4286704458942889  0.3285447699783182
  0.2070425044423543  0.9282353435734761  0.8329827678291846
  0.7002806517953646  0.9206884472484793  0.3253024935977811
  0.7006720518983200  0.4267287006807342  0.8280709737030451
  0.8341074413018785  0.9251401811910704  0.6887228930228416
  0.7884010274742943  0.4010346281425731  0.2049412059906067
  0.2819833873430203  0.3957403645192435  0.7037482656713122
  0.2810817582340230  0.8923919178162352  0.2077580130635852
  0.2734589824908519  0.2073274154487389  0.3932555608969519
  0.2732929034842185  0.7063029941591628  0.8882481797131069
  0.8105688594436330  0.6929910076578744  0.3624054356755599
  0.7714442683943947  0.2093079640479621  0.8866473939153903
  0.7125185638713293  0.2871016950020402  0.3962833966541824
  0.7064429777606249  0.8038154828558590  0.8830071330185794
  0.2060904708756035  0.8130974348969763  0.4094692817492381
  0.2122015626804209  0.2963246588543987  0.9030500779895345
 
             NaN             NaN             NaN
             NaN             NaN             NaN
             NaN             NaN             NaN
             NaN             NaN             NaN
             NaN             NaN             NaN
             NaN             NaN             NaN
             NaN             NaN             NaN
             NaN             NaN             NaN
             NaN             NaN             NaN
             NaN             NaN             NaN
             NaN             NaN             NaN
             NaN             NaN             NaN
             NaN             NaN             NaN
             NaN             NaN             NaN
             NaN             NaN             NaN
             NaN             NaN             NaN
             NaN             NaN             NaN
             NaN             NaN             NaN
             NaN             NaN             NaN
             NaN             NaN             NaN
             NaN             NaN             NaN
             NaN             NaN             NaN
             NaN             NaN             NaN
             NaN             NaN             NaN
             NaN             NaN             NaN
             NaN             NaN             NaN
             NaN             NaN             NaN
             NaN             NaN             NaN
             NaN             NaN             NaN
             NaN             NaN             NaN
             NaN             NaN             NaN
             NaN             NaN             NaN
             NaN             NaN             NaN
             NaN             NaN             NaN
             NaN             NaN             NaN
             NaN             NaN             NaN
             NaN             NaN             NaN
             NaN             NaN             NaN
             NaN             NaN             NaN
             NaN             NaN             NaN
             NaN             NaN             NaN
             NaN             NaN             NaN
             NaN             NaN             NaN
             NaN             NaN             NaN
             NaN             NaN             NaN
             NaN             NaN             NaN
             NaN             NaN             NaN
             NaN             NaN             NaN
             NaN             NaN             NaN
             NaN             NaN             NaN
             NaN             NaN             NaN
             NaN             NaN             NaN
             NaN             NaN             NaN
             NaN             NaN             NaN
             NaN             NaN             NaN
             NaN             NaN             NaN
             NaN             NaN             NaN
             NaN             NaN             NaN
             NaN             NaN             NaN
             NaN             NaN             NaN
             NaN             NaN             NaN
             NaN             NaN             NaN
             NaN             NaN             NaN
             NaN             NaN             NaN
             NaN             NaN             NaN
             NaN             NaN             NaN
             NaN             NaN             NaN
             NaN             NaN             NaN
             NaN             NaN             NaN
             NaN             NaN             NaN
             NaN             NaN             NaN
             NaN             NaN             NaN
             NaN             NaN             NaN
             NaN             NaN             NaN
             NaN             NaN             NaN
             NaN             NaN             NaN
             NaN             NaN             NaN
             NaN             NaN             NaN
             NaN             NaN             NaN
             NaN             NaN             NaN
             NaN             NaN             NaN
             NaN             NaN             NaN
             NaN             NaN             NaN
             NaN             NaN             NaN
             NaN             NaN             NaN
             NaN             NaN             NaN
             NaN             NaN             NaN
             NaN             NaN             NaN
             NaN             NaN             NaN
             NaN             NaN             NaN
             NaN             NaN             NaN
             NaN             NaN             NaN
             NaN             NaN             NaN
             NaN             NaN             NaN
             NaN             NaN             NaN
             NaN             NaN             NaN
             NaN             NaN             NaN
             NaN             NaN             NaN
             NaN             NaN             NaN
             NaN             NaN             NaN
             NaN             NaN             NaN
             NaN             NaN             NaN
             NaN             NaN             NaN
             NaN             NaN             NaN
             NaN             NaN             NaN
             NaN             NaN             NaN
             NaN             NaN             NaN
             NaN             NaN             NaN
             NaN             NaN             NaN
             NaN             NaN             NaN
             NaN             NaN             NaN
             NaN             NaN             NaN
             NaN             NaN             NaN
             NaN             NaN             NaN
             NaN             NaN             NaN
             NaN             NaN             NaN
             NaN             NaN             NaN
             NaN             NaN             NaN
             NaN             NaN             NaN
             NaN             NaN             NaN
             NaN             NaN             NaN
             NaN             NaN             NaN
             NaN             NaN             NaN
             NaN             NaN             NaN
             NaN             NaN             NaN
             NaN             NaN             NaN
             NaN             NaN             NaN
             NaN             NaN             NaN
             NaN             NaN             NaN
             NaN             NaN             NaN
             NaN             NaN             NaN
             NaN             NaN             NaN
             NaN             NaN             NaN
             NaN             NaN             NaN
             NaN             NaN             NaN
             NaN             NaN             NaN
             NaN             NaN             NaN
             NaN             NaN             NaN
             NaN             NaN             NaN
             NaN             NaN             NaN
             NaN             NaN             NaN
             NaN             NaN             NaN
             NaN             NaN             NaN
             NaN             NaN             NaN
             NaN             NaN             NaN
             NaN             NaN             NaN
             NaN             NaN             NaN
             NaN             NaN             NaN
             NaN             NaN             NaN
             NaN             NaN             NaN
             NaN             NaN             NaN
             NaN             NaN             NaN
             NaN             NaN             NaN
             NaN             NaN             NaN
             NaN             NaN             NaN
