Ca19 V16 P24 O96
1.0
-5.185795 7.357694 8.885754
5.096135 -7.273402 8.738645
10.286924 7.354280 -0.151677
Ca V P O
19 16 24 96
direct
0.520503 0.553766 0.488297 Ca
0.505707 0.976657 0.020685 Ca
0.001112 0.976042 0.520903 Ca
0.001877 0.479842 0.017908 Ca
0.484318 0.006637 0.490015 Ca
0.473494 0.517995 0.996346 Ca
0.977142 0.521072 0.488609 Ca
0.978510 0.015762 0.993519 Ca
0.571842 0.423495 0.249125 Ca
0.568305 0.913870 0.737790 Ca
0.071769 0.916637 0.242610 Ca
0.068538 0.414584 0.737178 Ca
0.264866 0.579648 0.433669 Ca
0.257880 0.082125 0.926944 Ca
0.751960 0.075753 0.424545 Ca
0.753749 0.578141 0.925472 Ca
0.576246 0.249505 0.919902 Ca
0.075429 0.246852 0.420503 Ca
0.075274 0.747415 0.919418 Ca
0.642819 0.640014 0.642769 V
0.645116 0.139587 0.144192 V
0.147131 0.138888 0.641825 V
0.148726 0.638097 0.139195 V
0.146314 0.147687 0.146057 V
0.145090 0.647174 0.645357 V
0.647212 0.648777 0.147965 V
0.644944 0.147483 0.645834 V
0.855576 0.857710 0.846860 V
0.852559 0.355452 0.351307 V
0.354147 0.356250 0.848146 V
0.351809 0.855495 0.351911 V
0.350349 0.349281 0.350948 V
0.350735 0.849102 0.851202 V
0.847881 0.846928 0.348820 V
0.849825 0.348232 0.850301 V
0.400663 0.749840 0.595894 P
0.402135 0.249299 0.094843 P
0.901103 0.246587 0.593982 P
0.901663 0.748329 0.093954 P
0.396232 0.598405 0.244137 P
0.403212 0.100486 0.753331 P
0.901980 0.101027 0.253198 P
0.900879 0.601382 0.752187 P
0.605047 0.405034 0.758384 P
0.602423 0.900038 0.258564 P
0.107972 0.904507 0.761036 P
0.106872 0.405361 0.260810 P
0.242382 0.394099 0.593136 P
0.242840 0.894525 0.093971 P
0.748840 0.896907 0.597533 P
0.742318 0.394424 0.094998 P
0.739819 0.596091 0.394933 P
0.735683 0.091205 0.890111 P
0.237558 0.092137 0.390461 P
0.234604 0.591219 0.887802 P
0.600533 0.246497 0.394011 P
0.601110 0.744950 0.892459 P
0.104239 0.751878 0.394400 P
0.102355 0.247643 0.893685 P
0.665580 0.588295 0.490271 O
0.657302 0.080494 0.984009 O
0.157962 0.078922 0.483172 O
0.155157 0.579304 0.980738 O
0.160993 0.487758 0.577517 O
0.161552 0.987883 0.078132 O
0.665600 0.988894 0.580283 O
0.661110 0.487784 0.080599 O
0.488263 0.666204 0.583542 O
0.490066 0.164654 0.075377 O
0.989443 0.162139 0.574804 O
0.990073 0.664241 0.075646 O
0.590732 0.163461 0.482408 O
0.593990 0.664374 0.983791 O
0.097890 0.665742 0.480410 O
0.091389 0.164009 0.982180 O
0.595476 0.482288 0.668155 O
0.592798 0.986178 0.173724 O
0.097224 0.980965 0.669798 O
0.093384 0.481643 0.169503 O
0.492933 0.586618 0.170599 O
0.485988 0.079611 0.666603 O
0.986796 0.081561 0.168046 O
0.983797 0.581621 0.665156 O
0.512026 0.417047 0.838133 O
0.506936 0.909639 0.333084 O
0.014604 0.916632 0.839779 O
0.012491 0.415274 0.338840 O
0.513153 0.329835 0.401815 O
0.513772 0.829676 0.902662 O
0.009236 0.828145 0.402543 O
0.015279 0.333030 0.903319 O
0.822134 0.507081 0.404117 O
0.826668 0.014464 0.902411 O
0.329889 0.016748 0.400424 O
0.325058 0.513862 0.898720 O
0.412708 0.506516 0.326906 O
0.419016 0.008320 0.835939 O
0.916384 0.007426 0.334229 O
0.917097 0.508057 0.833465 O
0.411920 0.833239 0.507181 O
0.420845 0.332481 0.005350 O
0.921565 0.331556 0.506591 O
0.920449 0.831834 0.005207 O
0.328598 0.412977 0.510232 O
0.329932 0.914822 0.011490 O
0.825770 0.910440 0.504308 O
0.827774 0.414640 0.010252 O
0.295630 0.687371 0.585583 O
0.297440 0.187800 0.082675 O
0.796471 0.185911 0.580341 O
0.797108 0.687146 0.080999 O
0.789604 0.600608 0.710734 O
0.792140 0.099740 0.208557 O
0.291988 0.099537 0.711870 O
0.299145 0.584385 0.176161 O
0.109789 0.289011 0.224843 O
0.108189 0.788273 0.724717 O
0.603664 0.792123 0.204556 O
0.606077 0.288326 0.723102 O
0.678449 0.797863 0.601484 O
0.674774 0.292996 0.076600 O
0.171717 0.293983 0.576221 O
0.174288 0.793771 0.074475 O
0.669912 0.577019 0.296226 O
0.666506 0.066774 0.792208 O
0.167712 0.069579 0.292174 O
0.164325 0.568522 0.790332 O
0.588829 0.681125 0.790504 O
0.593963 0.187319 0.290307 O
0.092206 0.190486 0.787765 O
0.105459 0.695405 0.287688 O
0.414774 0.311437 0.198610 O
0.412234 0.813765 0.700079 O
0.914617 0.809882 0.198379 O
0.913390 0.306986 0.699214 O
0.388676 0.696786 0.316432 O
0.421125 0.201746 0.822010 O
0.919696 0.201909 0.322042 O
0.920119 0.702038 0.821089 O
0.204399 0.431449 0.329763 O
0.205359 0.927890 0.831115 O
0.701308 0.921562 0.327194 O
0.703024 0.425756 0.829784 O
0.810562 0.910832 0.697995 O
0.786919 0.396320 0.204923 O
0.282858 0.394940 0.704764 O
0.284373 0.895343 0.205267 O
0.271886 0.209033 0.389835 O
0.271653 0.707187 0.887616 O
0.798666 0.701859 0.393031 O
0.772181 0.207333 0.888229 O
0.706461 0.302713 0.400567 O
0.706779 0.803455 0.893496 O
0.201822 0.822897 0.407115 O
0.209525 0.302276 0.903473 O
