Ca4 Fe4 O12                             
   1.00000000000000     
     5.3331503305312999    0.0000007128487663   -0.0000000585707436
     0.0000010042497739    7.5281212167633811   -0.0000016901505405
    -0.0000000533386789   -0.0000011821720848    5.3086339361324049
   Ca   Fe   O 
     4     4    12
Direct
  0.5361552300500634  0.2499999995455795  0.5065343292656124
  0.0361553175969149  0.2500000179577242  0.9934657515246101
  0.4638459804760728  0.7499999667614929  0.4934661113802790
  0.9638460292387876  0.7500000167517342  0.0065338525388086
  0.0000020425013503  0.0000018152323236  0.5000013251246784
  0.5000019061544165  0.4999982883173075  0.9999985983866608
  0.0000019471687764  0.4999982197899371  0.5000013569963500
  0.5000018276383429  0.0000017107081973  0.9999985730920642
  0.7857427237561510  0.0338114429445113  0.7861296043372761
  0.2857428587613740  0.4661887125288615  0.7138707876802854
  0.2142503345476072  0.5338105864848899  0.2138781385378152
  0.7142499955626960  0.9661892577611297  0.2861217237425535
  0.2142522907863835  0.9661892755722405  0.2138758498009352
  0.7142522213586133  0.5338105934419843  0.2861238200851233
  0.7857446917480715  0.4661887211809912  0.7861272475151111
  0.2857450280180700  0.0338114280489705  0.7138729282998852
  0.9885388050822925  0.2500010123145486  0.4353822644173420
  0.4885387836955033  0.2499985948144285  0.0646179616421776
  0.0114659393009404  0.7499989519062567  0.5646177652851918
  0.5114660465575582  0.7500013879368908  0.9353820103472330
 
  0.00000000E+00  0.00000000E+00  0.00000000E+00
  0.00000000E+00  0.00000000E+00  0.00000000E+00
  0.00000000E+00  0.00000000E+00  0.00000000E+00
  0.00000000E+00  0.00000000E+00  0.00000000E+00
  0.00000000E+00  0.00000000E+00  0.00000000E+00
  0.00000000E+00  0.00000000E+00  0.00000000E+00
  0.00000000E+00  0.00000000E+00  0.00000000E+00
  0.00000000E+00  0.00000000E+00  0.00000000E+00
  0.00000000E+00  0.00000000E+00  0.00000000E+00
  0.00000000E+00  0.00000000E+00  0.00000000E+00
  0.00000000E+00  0.00000000E+00  0.00000000E+00
  0.00000000E+00  0.00000000E+00  0.00000000E+00
  0.00000000E+00  0.00000000E+00  0.00000000E+00
  0.00000000E+00  0.00000000E+00  0.00000000E+00
  0.00000000E+00  0.00000000E+00  0.00000000E+00
  0.00000000E+00  0.00000000E+00  0.00000000E+00
  0.00000000E+00  0.00000000E+00  0.00000000E+00
  0.00000000E+00  0.00000000E+00  0.00000000E+00
  0.00000000E+00  0.00000000E+00  0.00000000E+00
  0.00000000E+00  0.00000000E+00  0.00000000E+00
