Ca1 Cr4 P6 O24
1.0
2.598943 7.022605 4.368885
0.261988 0.105203 8.633120
7.462203 0.117075 4.347252
Ca Cr P O
1 4 6 24
direct
0.247762 0.882286 0.616242 Ca
0.645919 0.637324 0.647630 Cr
0.134574 0.140908 0.144567 Cr
0.848673 0.849776 0.853551 Cr
0.362977 0.352470 0.350806 Cr
0.247848 0.529477 0.966087 P
0.036513 0.745518 0.466676 P
0.956635 0.256526 0.520968 P
0.462392 0.028210 0.748099 P
0.535760 0.972272 0.240191 P
0.749343 0.453049 0.038589 P
0.570827 0.790125 0.418078 O
0.304359 0.051420 0.936610 O
0.416532 0.562361 0.773429 O
0.928411 0.273832 0.048095 O
0.792243 0.436557 0.551399 O
0.063056 0.922740 0.282466 O
0.927997 0.076669 0.704407 O
0.577307 0.434072 0.225340 O
0.692580 0.947380 0.055022 O
0.204109 0.565516 0.433367 O
0.075668 0.718745 0.936813 O
0.421762 0.213703 0.577491 O
0.210994 0.358760 1.000831 O
0.846770 0.734048 0.518083 O
0.966450 0.235616 0.350638 O
0.461414 0.861770 0.727682 O
0.335484 1.000403 0.261424 O
0.698720 0.488415 0.874685 O
0.291592 0.500265 0.130339 O
0.038440 0.768221 0.630988 O
0.153596 0.245904 0.488432 O
0.657420 -0.015847 0.743702 O
0.525440 0.142883 0.261113 O
0.790944 0.625125 -0.001804 O
