Ca1 Mn4 P6 O24                          
   1.00000000000000     
     2.7137617555228943    6.8154952480882214    4.5279551284036934
     0.4844563999424785    0.2859787989856764    8.6046803285125169
     7.3596993456568365    0.2847924557653195    4.4861167611619974
   Ca   Mn   P    O 
     1     4     6    24
Direct
  0.4975186543844501  0.4976509156607349  0.4975382388193879
  0.6426010774413342  0.6426352153761314  0.6428859137681684
  0.1457287111592294  0.1454072074358166  0.1459104447469244
  0.8489485968800210  0.8490569515578983  0.8485543682966963
  0.3523954469961268  0.3524757096405509  0.3522981594087042
  0.2445791743213803  0.5305548002560769  0.9640765087259879
  0.0312762002881328  0.7502943954843104  0.4644167419957483
  0.9638024585529621  0.2446167033131772  0.5305540354279046
  0.4644155138770643  0.0311955780406095  0.7503188656776771
  0.5305345048941064  0.9639034632172496  0.2445255358242946
  0.7502951314317201  0.4643545413342167  0.0310533608196906
  0.6144036007367433  0.7505749046557426  0.3901503780128976
  0.3181234865400100  0.0047056417295295  0.9665602216985434
  0.3902479772813479  0.6140316211743126  0.7504478189934076
  0.9666008536765816  0.3181503474553793  0.0047075499648841
  0.7503924560999096  0.3904278486694039  0.6138552673460183
  0.0047456726258872  0.9664058911527960  0.3175034454252881
  0.9898431594789798  0.0286628940299920  0.6778140479079582
  0.6049296790649450  0.3808641953139400  0.2447920942133806
  0.6771778363985703  0.9897804369428158  0.0284814125498798
  0.2447784419954218  0.6048033271091882  0.3809298803698198
  0.0283899121933544  0.6770815148746365  0.9899049632399581
  0.3805139830237252  0.2446979226418193  0.6050075726395860
  0.2847094965090662  0.3272046015633094  0.9739062205856541
  0.8769772775558735  0.6953229789281750  0.4903027236374058
  0.9728577052711316  0.2838495785170281  0.3279703306220725
  0.4897337552924128  0.8768619652949639  0.6957892021738843
  0.3275694575873942  0.9726399228464260  0.2847283013619943
  0.6955390253002349  0.4890063275429739  0.8772021638484588
  0.2992480218914153  0.5063509473377650  0.1178079809400145
  0.0227945841582482  0.7105537753295863  0.6669570406324326
  0.1178719750663788  0.2997261545227161  0.5051053590250589
  0.6673312845019694  0.0227173281369133  0.7098433988623469
  0.5055139201486227  0.1182456552511937  0.2989367775289793
  0.7100109673752826  0.6675887376626335  0.0215636749089256
 
  0.00000000E+00  0.00000000E+00  0.00000000E+00
  0.00000000E+00  0.00000000E+00  0.00000000E+00
  0.00000000E+00  0.00000000E+00  0.00000000E+00
  0.00000000E+00  0.00000000E+00  0.00000000E+00
  0.00000000E+00  0.00000000E+00  0.00000000E+00
  0.00000000E+00  0.00000000E+00  0.00000000E+00
  0.00000000E+00  0.00000000E+00  0.00000000E+00
  0.00000000E+00  0.00000000E+00  0.00000000E+00
  0.00000000E+00  0.00000000E+00  0.00000000E+00
  0.00000000E+00  0.00000000E+00  0.00000000E+00
  0.00000000E+00  0.00000000E+00  0.00000000E+00
  0.00000000E+00  0.00000000E+00  0.00000000E+00
  0.00000000E+00  0.00000000E+00  0.00000000E+00
  0.00000000E+00  0.00000000E+00  0.00000000E+00
  0.00000000E+00  0.00000000E+00  0.00000000E+00
  0.00000000E+00  0.00000000E+00  0.00000000E+00
  0.00000000E+00  0.00000000E+00  0.00000000E+00
  0.00000000E+00  0.00000000E+00  0.00000000E+00
  0.00000000E+00  0.00000000E+00  0.00000000E+00
  0.00000000E+00  0.00000000E+00  0.00000000E+00
  0.00000000E+00  0.00000000E+00  0.00000000E+00
  0.00000000E+00  0.00000000E+00  0.00000000E+00
  0.00000000E+00  0.00000000E+00  0.00000000E+00
  0.00000000E+00  0.00000000E+00  0.00000000E+00
  0.00000000E+00  0.00000000E+00  0.00000000E+00
  0.00000000E+00  0.00000000E+00  0.00000000E+00
  0.00000000E+00  0.00000000E+00  0.00000000E+00
  0.00000000E+00  0.00000000E+00  0.00000000E+00
  0.00000000E+00  0.00000000E+00  0.00000000E+00
  0.00000000E+00  0.00000000E+00  0.00000000E+00
  0.00000000E+00  0.00000000E+00  0.00000000E+00
  0.00000000E+00  0.00000000E+00  0.00000000E+00
  0.00000000E+00  0.00000000E+00  0.00000000E+00
  0.00000000E+00  0.00000000E+00  0.00000000E+00
  0.00000000E+00  0.00000000E+00  0.00000000E+00
