P4 O10                                  
   1.00000000000000     
    -0.0000080716044907    4.0596407501230676    2.6296077594725284
    -0.0000081251169985   -4.0596408878744850    2.6296079703331734
     8.1560566210899204    0.0000001235030268   -2.6296231410154505
   P    O 
     4    10
Direct
  0.7559078356755862  0.5944303898953009  0.8497657539953991
  0.7446855104297470  0.9061533195133507  0.1502391537884407
  0.6561533501979682  0.9946855104545307  0.6502391453082055
  0.3444304164080236  0.0059078604598852  0.3497657661071685
  0.0934873726357708  0.7628424083369438  0.8881096898128789
  0.8747344810233528  0.2053323455937175  0.1118655322666839
  0.9553322973333351  0.1247344600997522  0.6118655357083043
  0.5128423983045209  0.3434873667231102  0.3881096886593625
  0.5693071760278130  0.7084482954248728  0.7268810529301817
  0.9815297746152041  0.8423896659596082  0.2731447778765883
  0.5923896645956930  0.2315297733072441  0.7731447869046946
  0.4584482933224194  0.8193071747069141  0.2268810626256581
  0.6064420007191842  0.6064494228225925  0.9999940273535373
  0.3564494287113931  0.8564420067021885  0.4999940266629039
 
  0.00000000E+00  0.00000000E+00  0.00000000E+00
  0.00000000E+00  0.00000000E+00  0.00000000E+00
  0.00000000E+00  0.00000000E+00  0.00000000E+00
  0.00000000E+00  0.00000000E+00  0.00000000E+00
  0.00000000E+00  0.00000000E+00  0.00000000E+00
  0.00000000E+00  0.00000000E+00  0.00000000E+00
  0.00000000E+00  0.00000000E+00  0.00000000E+00
  0.00000000E+00  0.00000000E+00  0.00000000E+00
  0.00000000E+00  0.00000000E+00  0.00000000E+00
  0.00000000E+00  0.00000000E+00  0.00000000E+00
  0.00000000E+00  0.00000000E+00  0.00000000E+00
  0.00000000E+00  0.00000000E+00  0.00000000E+00
  0.00000000E+00  0.00000000E+00  0.00000000E+00
  0.00000000E+00  0.00000000E+00  0.00000000E+00
