Ca1 V4 S6 O24                           
   1.00000000000000     
     7.4939080000000002   -0.0810920000000000    4.8434990000000004
     2.3599280000000000    6.7421009999999999    5.2652510000000001
    -0.0085470000000000   -0.5881280000000000    8.9222129999999993
   Ca   V    S    O 
     1     4     6    24
Direct
  0.2513901536040640  0.8753134025727430  0.6078903557467789
  0.6530799163179736  0.6444761369668575  0.6487223256854689
  0.1377759740017102  0.1430095106758786  0.1434173769081347
  0.8474056112242845  0.8385135613352320  0.8473135924920430
  0.3621707329875211  0.3437862010755817  0.3481329363811842
  0.9593536525238168  0.2489801044717345  0.5248254567003161
  0.4518094190517888  0.0325190710055963  0.7442927395691009
  0.5457308821124263  0.9627685500445879  0.2389846300445779
  0.7496493061319918  0.4433869906511398  0.0476535620020583
  0.2509316420121164  0.5302977076684128  0.9570986382729740
  0.0438588718015882  0.7447037107709760  0.4586780272746372
  0.4158925639648530  0.5613238101354594  0.7784180105854706
  0.9104058387117323  0.2633889834151885  0.0675179398323081
  0.8216398329461128  0.4249386558921492  0.5541435499268889
  0.0951713464466469  0.8936978720277540  0.2782223046455743
  0.5779155932584604  0.7869135623059397  0.4058121284787679
  0.3065110999962852  0.0441681121920519  0.9257516734366138
  0.6880771326986342  0.9352673823188471  0.0638217225897626
  0.1780555264084915  0.5578452495772549  0.4517282400906658
  0.0889142428851302  0.7118287648215951  0.9244905336038958
  0.4139353368141498  0.2139055874776423  0.5905609592719209
  0.9229109529989596  0.0813932206808445  0.6973710566308454
  0.5823895995653496  0.4313114254665543  0.2220473752961232
  0.9603622936865310  0.2407501460207978  0.3658401816064677
  0.4467601054060593  0.8851038285185259  0.7132875996795531
  0.3534950230760546  0.0000236169289712  0.2578571920993031
  0.7048227002796308  0.4856487328755530  0.8909938112685806
  0.2176516892724697  0.3742928544078770  0.9813456609618630
  0.8524510200365141  0.7626463959023702  0.5077526566249814
  0.1532713873994553  0.2230885059838157  0.4909855548552147
  0.6386680594394312  0.9758552698283695  0.7419370953767568
  0.5448813720840815  0.1194623877090389  0.2529246897685447
  0.8012835393602927  0.5943305343077419  0.0116437244925135
  0.2817616421398945  0.4985883881167628  0.1165668575688822
  0.0499759886883325  0.7697820463514946  0.6085103445250991
 
             NaN             NaN             NaN
             NaN             NaN             NaN
             NaN             NaN             NaN
             NaN             NaN             NaN
             NaN             NaN             NaN
             NaN             NaN             NaN
             NaN             NaN             NaN
             NaN             NaN             NaN
             NaN             NaN             NaN
             NaN             NaN             NaN
             NaN             NaN             NaN
             NaN             NaN             NaN
             NaN             NaN             NaN
             NaN             NaN             NaN
             NaN             NaN             NaN
             NaN             NaN             NaN
             NaN             NaN             NaN
             NaN             NaN             NaN
             NaN             NaN             NaN
             NaN             NaN             NaN
             NaN             NaN             NaN
             NaN             NaN             NaN
             NaN             NaN             NaN
             NaN             NaN             NaN
             NaN             NaN             NaN
             NaN             NaN             NaN
             NaN             NaN             NaN
             NaN             NaN             NaN
             NaN             NaN             NaN
             NaN             NaN             NaN
             NaN             NaN             NaN
             NaN             NaN             NaN
             NaN             NaN             NaN
             NaN             NaN             NaN
             NaN             NaN             NaN
