Ca1 V4 S6 O24                           
   1.00000000000000     
     7.4939080000000002   -0.0810920000000000    4.8434990000000004
     2.3599280000000000    6.7421009999999999    5.2652510000000001
    -0.0085470000000000   -0.5881280000000000    8.9222129999999993
   Ca   V    S    O 
     1     4     6    24
Direct
  0.2526737922810246  0.8741587392496323  0.6056549112403818
  0.6539571720494362  0.6445264040563845  0.6479712183762589
  0.1364976283953005  0.1431509374506402  0.1435728201637659
  0.8475225085522183  0.8381960867867919  0.8484527906489532
  0.3607080816030881  0.3431041645077099  0.3493645020648035
  0.9574610423697726  0.2521841507230925  0.5236964303200260
  0.4488681068437050  0.0318122037927067  0.7461853534239459
  0.5444764718273800  0.9636484963439864  0.2382430013689877
  0.7480044938642726  0.4414910896972161  0.0501299337160147
  0.2543023226199257  0.5275023814570415  0.9558377840052094
  0.0444757156846165  0.7452452671394090  0.4548532485296710
  0.4159819767049879  0.5603949088109932  0.7786871018059629
  0.9086620123358031  0.2638647730747188  0.0694730835731937
  0.8256292357473523  0.4237354544135932  0.5537152370330490
  0.0974383288324338  0.8907588223286173  0.2783428837872952
  0.5784455562805588  0.7858150819998005  0.4064123728739179
  0.3049832844401084  0.0451707900159970  0.9232266334263380
  0.6897974515826863  0.9355244986313024  0.0636831112665406
  0.1725399797232762  0.5552666636673009  0.4549080503782318
  0.0886665686478142  0.7132465984939278  0.9235103617046838
  0.4140746476022130  0.2150677839287024  0.5895517404652676
  0.9225536619010265  0.0800243909941341  0.6997597916780689
  0.5805979560657545  0.4337378778802510  0.2213208892454519
  0.9610345191494726  0.2406341236819229  0.3662208383351950
  0.4458412597510261  0.8864575542781484  0.7120021373344759
  0.3557730080390988  1.0011159971029020  0.2568880646461299
  0.7061048287718950  0.4880373915273523  0.8901520035687690
  0.2178272098987461  0.3748943168001519  0.9805069794222284
  0.8496851516892867  0.7673165188456796  0.5043639982266835
  0.1571173055502134  0.2213986834762018  0.4901872647243800
  0.6383058117596726  0.9738236557602719  0.7441152814160527
  0.5457453258619942  0.1197036724189015  0.2554597380536518
  0.8033776579596398  0.5954314698839438  0.0124519910911376
  0.2822301643120733  0.4964707332817676  0.1178971771069675
  0.0496961298897109  0.7693139921597999  0.6094796169893321
 
             NaN             NaN             NaN
             NaN             NaN             NaN
             NaN             NaN             NaN
             NaN             NaN             NaN
             NaN             NaN             NaN
             NaN             NaN             NaN
             NaN             NaN             NaN
             NaN             NaN             NaN
             NaN             NaN             NaN
             NaN             NaN             NaN
             NaN             NaN             NaN
             NaN             NaN             NaN
             NaN             NaN             NaN
             NaN             NaN             NaN
             NaN             NaN             NaN
             NaN             NaN             NaN
             NaN             NaN             NaN
             NaN             NaN             NaN
             NaN             NaN             NaN
             NaN             NaN             NaN
             NaN             NaN             NaN
             NaN             NaN             NaN
             NaN             NaN             NaN
             NaN             NaN             NaN
             NaN             NaN             NaN
             NaN             NaN             NaN
             NaN             NaN             NaN
             NaN             NaN             NaN
             NaN             NaN             NaN
             NaN             NaN             NaN
             NaN             NaN             NaN
             NaN             NaN             NaN
             NaN             NaN             NaN
             NaN             NaN             NaN
             NaN             NaN             NaN
