Ni4 P4 O14                              
   1.00000000000000     
     5.1255029576662379    0.0000000019229439   -0.6691907901650505
     0.0000000117383264    9.8584979553842942    0.0000000877764546
     0.0129387550645390    0.0000000400887820    4.4560689642086055
   Ni   P    O 
     4     4    14
Direct
  0.0827608002620863  0.1558645800912686  0.9051246146081127
  0.4172993074008673  0.6558521344134363  0.0948677384903789
  0.9172993181481814  0.8441478572971377  0.0948678380902948
  0.5827608077008222  0.3441354281929989  0.9051247102853281
  0.1574687780082584  0.3876881539294317  0.3586190053728870
  0.3425119447764615  0.8876663929960102  0.6414005810255148
  0.8425119378430637  0.6123336106580339  0.6414005638906985
  0.6574687754223305  0.1123118439778850  0.3586189852902990
  0.2605350827982633  0.2951426089838449  0.6181266238207428
  0.2394275982735650  0.7951629970512641  0.3818416708053860
  0.7394276014228112  0.7048369987751499  0.3818416743933852
  0.7605350831520639  0.2048573938627669  0.6181266239367673
  0.9625098502968257  0.3210035964895042  0.1194915130627976
  0.5375454761132517  0.8209786130829357  0.8804268211386486
  0.0375454718838668  0.6790213789761168  0.8804268366192147
  0.4625098539314649  0.1789964087012876  0.1194915331837763
  0.3741418309896218  0.4571638398101996  0.2141275714652622
  0.1258472881937109  0.9571349684174280  0.7859628742637881
  0.6258472870625340  0.5428650332676455  0.7859628550176794
  0.8741418287182867  0.0428361599283349  0.2141275614855687
  0.9999520396894397  0.4999831341791250  0.5000109020391719
  0.4999520379122231  0.0000168669181875  0.5000109017142904
 
  0.00000000E+00  0.00000000E+00  0.00000000E+00
  0.00000000E+00  0.00000000E+00  0.00000000E+00
  0.00000000E+00  0.00000000E+00  0.00000000E+00
  0.00000000E+00  0.00000000E+00  0.00000000E+00
  0.00000000E+00  0.00000000E+00  0.00000000E+00
  0.00000000E+00  0.00000000E+00  0.00000000E+00
  0.00000000E+00  0.00000000E+00  0.00000000E+00
  0.00000000E+00  0.00000000E+00  0.00000000E+00
  0.00000000E+00  0.00000000E+00  0.00000000E+00
  0.00000000E+00  0.00000000E+00  0.00000000E+00
  0.00000000E+00  0.00000000E+00  0.00000000E+00
  0.00000000E+00  0.00000000E+00  0.00000000E+00
  0.00000000E+00  0.00000000E+00  0.00000000E+00
  0.00000000E+00  0.00000000E+00  0.00000000E+00
  0.00000000E+00  0.00000000E+00  0.00000000E+00
  0.00000000E+00  0.00000000E+00  0.00000000E+00
  0.00000000E+00  0.00000000E+00  0.00000000E+00
  0.00000000E+00  0.00000000E+00  0.00000000E+00
  0.00000000E+00  0.00000000E+00  0.00000000E+00
  0.00000000E+00  0.00000000E+00  0.00000000E+00
  0.00000000E+00  0.00000000E+00  0.00000000E+00
  0.00000000E+00  0.00000000E+00  0.00000000E+00
