Ni4 P4 O14
1.0
5.167884 0.000000 -0.676695
0.000000 9.913000 0.000000
0.000000 0.000000 4.475000
Ni P O
4 4 14
direct
0.084060 0.156560 0.903400 Ni2+
0.415940 0.656560 0.096600 Ni2+
0.915940 0.843440 0.096600 Ni2+
0.584060 0.343440 0.903400 Ni2+
0.156900 0.388740 0.357900 P5+
0.343100 0.888740 0.642100 P5+
0.843100 0.611260 0.642100 P5+
0.656900 0.111260 0.357900 P5+
0.261800 0.296300 0.617700 O2-
0.238200 0.796300 0.382300 O2-
0.738200 0.703700 0.382300 O2-
0.761800 0.203700 0.617700 O2-
0.963500 0.320700 0.119400 O2-
0.536500 0.820700 0.880600 O2-
0.036500 0.679300 0.880600 O2-
0.463500 0.179300 0.119400 O2-
0.371300 0.458500 0.213200 O2-
0.128700 0.958500 0.786800 O2-
0.628700 0.541500 0.786800 O2-
0.871300 0.041500 0.213200 O2-
0.000000 0.500000 0.500000 O2-
0.500000 0.000000 0.500000 O2-
