Ca4 V4 P6 O24                           
   1.00000000000000     
     2.6092350000000000    7.2686580000000003    4.4119650000000004
    -0.0158170000000000    0.0488900000000000    8.7949249999999992
     7.6742710000000001    0.0275500000000000    4.2949950000000001
   Ca   V    P    O 
     4     4     6    24
Direct
  0.5162488660463992  0.5036824878172448  0.4940460484375975
  0.9430287086772892  0.0061178099561627  0.0284451087043550
  0.3745132059805110  0.7520373650262400  0.0918304430199510
  0.1092378472716543  0.3985663440802422  0.7540403972832204
  0.6398563656196310  0.6449357100494421  0.6476876967428058
  0.1420896856827314  0.1458712415839478  0.1565959530829224
  0.8546931191203073  0.8658333350647093  0.8421242796043386
  0.3464801495152229  0.3502611321226312  0.3508990922018637
  0.2397852036401305  0.5597361847428869  0.9447774656201534
  0.0379830166754199  0.7588637252210580  0.4593786922760931
  0.9499481790223526  0.2544794722787660  0.5621061831063712
  0.4582207986277407  0.0470191935200309  0.7457640888768554
  0.5372078145810110  0.9394023023070459  0.2497778379806641
  0.7464733843770326  0.4628730006429196  0.0317627803474701
  0.5688074997415052  0.7705786579263865  0.4210314545029837
  0.2658622571420556  0.0730830132908011  0.9068224769972011
  0.4042301911227515  0.5756370618743707  0.7622411467900964
  0.9042648030328773  0.2755614003823005  0.0532850970172974
  0.7662030371301695  0.4223058475230224  0.5698306868031062
  0.0617194710523496  0.9015894404401815  0.2632373090884937
  0.9082395795261975  0.1016034812250385  0.7492024912031963
  0.5849276869185267  0.4715141729285015  0.2155761739198317
  0.7232876134895988  0.9059182811745647  0.0893053810742506
  0.2287654979088268  0.5946938710055040  0.4399148275516671
  0.0774775942343733  0.7455246707258153  0.9230376769462408
  0.4323079955334623  0.2321688877980511  0.5886070232716937
  0.1931830321810614  0.3997854006087583  0.9744329840418090
  0.8856487655978290  0.6880105995472087  0.5259413132294003
  0.0030171085219812  0.2045637690591572  0.3978711566332649
  0.4869492163302918  0.8757364685795122  0.7169618601679409
  0.3896658062879963  0.9332232016046140  0.2119338452032281
  0.6727118903939407  0.4906153533750787  0.8934425000742050
  0.2817630263824105  0.5371353197789950  0.1053447743448062
  0.0155654381611567  0.8263721593620482  0.6007408487299986
  0.0976832147485130  0.3018274956535760  0.5564189251429172
  0.6108946086887040  0.0085925421302838  0.8035642683141134
  0.4941213987729331  0.1180075227685731  0.2705235525669686
  0.8268201296900972  0.6132926192856262  0.9526834456962602
 
             NaN             NaN             NaN
             NaN             NaN             NaN
             NaN             NaN             NaN
             NaN             NaN             NaN
             NaN             NaN             NaN
             NaN             NaN             NaN
             NaN             NaN             NaN
             NaN             NaN             NaN
             NaN             NaN             NaN
             NaN             NaN             NaN
             NaN             NaN             NaN
             NaN             NaN             NaN
             NaN             NaN             NaN
             NaN             NaN             NaN
             NaN             NaN             NaN
             NaN             NaN             NaN
             NaN             NaN             NaN
             NaN             NaN             NaN
             NaN             NaN             NaN
             NaN             NaN             NaN
             NaN             NaN             NaN
             NaN             NaN             NaN
             NaN             NaN             NaN
             NaN             NaN             NaN
             NaN             NaN             NaN
             NaN             NaN             NaN
             NaN             NaN             NaN
             NaN             NaN             NaN
             NaN             NaN             NaN
             NaN             NaN             NaN
             NaN             NaN             NaN
             NaN             NaN             NaN
             NaN             NaN             NaN
             NaN             NaN             NaN
             NaN             NaN             NaN
             NaN             NaN             NaN
             NaN             NaN             NaN
             NaN             NaN             NaN
