Ca4 V4 P6 O24                           
   1.00000000000000     
     2.6092350000000000    7.2686580000000003    4.4119650000000004
    -0.0158170000000000    0.0488900000000000    8.7949249999999992
     7.6742710000000001    0.0275500000000000    4.2949950000000001
   Ca   V    P    O 
     4     4     6    24
Direct
  0.5162519867383225  0.5036781992320940  0.4940488261601823
  0.9430512981582398  0.0061179482351981  0.0284299520732712
  0.3745218832793457  0.7520340590670201  0.0918186894777838
  0.1092385889292039  0.3985704924035661  0.7540495236411704
  0.6398525542938712  0.6449293919710476  0.6476973887401296
  0.1420915961049495  0.1458725367355207  0.1565916274523726
  0.8547048993670675  0.8658132475436046  0.8421188872614200
  0.3464683050235617  0.3502572100519482  0.3509020102180965
  0.2397727764953141  0.5597525763233462  0.9447766998820837
  0.0379802591408843  0.7588582624278156  0.4593616528834411
  0.9499482307631872  0.2544781050261823  0.5621107120492713
  0.4582313351272094  0.0470226572241722  0.7457716498963133
  0.5371848108295215  0.9394004693524287  0.2497937930711348
  0.7464704729500381  0.4628729409349363  0.0317636629084534
  0.5688107804146808  0.7705788825913762  0.4210304667843128
  0.2658598764439246  0.0730845237230085  0.9068188776443564
  0.4042314898704973  0.5756352470064444  0.7622407284817190
  0.9042628904665444  0.2755639651373764  0.0532841176529296
  0.7662001158792942  0.4223117502776673  0.5698325470434653
  0.0617194066859921  0.9015881448883111  0.2632437365284757
  0.9082462786526098  0.1016016649050372  0.7491993060942926
  0.5849292337957350  0.4715145592488416  0.2155756362455636
  0.7232983801097992  0.9059147225720661  0.0892847117984818
  0.2287543780390768  0.5947011446961842  0.4399255755759189
  0.0774913830360391  0.7455210068403907  0.9230393957989510
  0.4323036076869832  0.2321720332138503  0.5886054703091765
  0.1931865781513577  0.3997843458543786  0.9744325853615859
  0.8856528179162662  0.6880137035363888  0.5259364928426370
  0.0030237291796498  0.2045639820564787  0.3978730399687579
  0.4869558531123364  0.8757305347850445  0.7169574401825499
  0.3896744108196512  0.9332122220543347  0.2119332858285078
  0.6727140475826928  0.4906169899027478  0.8934373823985580
  0.2817637931834643  0.5371380777538046  0.1053434144175857
  0.0155590957954563  0.8263811136541287  0.6007646986193630
  0.0976749510023965  0.3018288090416466  0.5564297559632743
  0.6108767483354870  0.0086042276305935  0.8035547443684419
  0.4941091751362373  0.1180044344590172  0.2705238122449791
  0.8268144381997434  0.6132974788313192  0.9526852434544346
 
             NaN             NaN             NaN
             NaN             NaN             NaN
             NaN             NaN             NaN
             NaN             NaN             NaN
             NaN             NaN             NaN
             NaN             NaN             NaN
             NaN             NaN             NaN
             NaN             NaN             NaN
             NaN             NaN             NaN
             NaN             NaN             NaN
             NaN             NaN             NaN
             NaN             NaN             NaN
             NaN             NaN             NaN
             NaN             NaN             NaN
             NaN             NaN             NaN
             NaN             NaN             NaN
             NaN             NaN             NaN
             NaN             NaN             NaN
             NaN             NaN             NaN
             NaN             NaN             NaN
             NaN             NaN             NaN
             NaN             NaN             NaN
             NaN             NaN             NaN
             NaN             NaN             NaN
             NaN             NaN             NaN
             NaN             NaN             NaN
             NaN             NaN             NaN
             NaN             NaN             NaN
             NaN             NaN             NaN
             NaN             NaN             NaN
             NaN             NaN             NaN
             NaN             NaN             NaN
             NaN             NaN             NaN
             NaN             NaN             NaN
             NaN             NaN             NaN
             NaN             NaN             NaN
             NaN             NaN             NaN
             NaN             NaN             NaN
