Ca2 Ni4 S6 O24                          
   1.00000000000000     
     7.5186260000000003    0.1097110000000000    4.4216620000000004
     2.5828350000000002    7.0582690000000001    4.4167500000000004
     0.1401030000000000    0.1100390000000000    8.7226560000000006
   Ca   Ni   S    O 
     2     4     6    24
Direct
  0.4921584380335843  0.5063874150124545  0.4983904257480682
  0.9933281138831410  1.0046580405503605 -0.0024037445284765
  0.6415703039451893  0.6488473861125383  0.6487758434059278
  0.1416794198236559  0.1490727342710823  0.1476930474625466
  0.8468584070808599  0.8557325355584183  0.8496656687552584
  0.3475620443981656  0.3557111011282836  0.3490444663201654
  0.9496082594715411  0.2529742967803600  0.5439326025390433
  0.4483846093129497  0.0477497466887499  0.7499216768002931
  0.5399293124840059  0.9582373905871797  0.2477330549023366
  0.7454250783083513  0.4559598727684233  0.0426986949987177
  0.2433470052027329  0.5494027036534181  0.9554292002808308
  0.0387936879512423  0.7535463880847396  0.4535916809089126
  0.4177791303846305  0.5466128437026433  0.7813303003691866
  0.8928359587315531  0.2642109858407670  0.0904896996644574
  0.7756974559562244  0.4282718537672234  0.5418720299052041
  0.0824753577278583  0.9009559082732408  0.2611470572852159
  0.5387281673646283  0.7870616830381902  0.4249197065313065
  0.2561866536548694  0.0948562522918506  0.8966522787679131
  0.7316779709020360  0.9116792554054172  0.1005654980907109
  0.2123991462519571  0.5780342592381666  0.4546114821729703
  0.0949228979732716  0.7409052058348669  0.9092354254595879
  0.4511297608693284  0.2197666814695686  0.5732567826336948
  0.9046158648166550  0.1052034371595578  0.7358589030220620
  0.5706553816432888  0.4607580671978126  0.2162002690842215
  0.9878978944650431  0.1920421181265832  0.3978733196752191
  0.4710829889907410  0.8870033457675169  0.7194248809379918
  0.3931365625747625  0.9916943506634457  0.1903462541317154
  0.7105124049924280  0.4732541360704248  0.8873384176336262
  0.1832818777823222  0.4009547319562817  0.9978663956002278
  0.8790544702269618  0.7193689596421137  0.4799582023393161
  0.1076967482967330  0.2876532109108405  0.5208938819174318
  0.5946201527880877  0.0110920907496998  0.8099379771386340
  0.5164043718891970  0.1204095365202210  0.2764125836368533
  0.8072504546420085  0.6038977065857963 -0.0018491330183549
  0.2786167764684307  0.5304256601083178  0.1112924314763014
  0.0041156705502188  0.8145223127111443  0.5982294754503638
 
             NaN             NaN             NaN
             NaN             NaN             NaN
             NaN             NaN             NaN
             NaN             NaN             NaN
             NaN             NaN             NaN
             NaN             NaN             NaN
             NaN             NaN             NaN
             NaN             NaN             NaN
             NaN             NaN             NaN
             NaN             NaN             NaN
             NaN             NaN             NaN
             NaN             NaN             NaN
             NaN             NaN             NaN
             NaN             NaN             NaN
             NaN             NaN             NaN
             NaN             NaN             NaN
             NaN             NaN             NaN
             NaN             NaN             NaN
             NaN             NaN             NaN
             NaN             NaN             NaN
             NaN             NaN             NaN
             NaN             NaN             NaN
             NaN             NaN             NaN
             NaN             NaN             NaN
             NaN             NaN             NaN
             NaN             NaN             NaN
             NaN             NaN             NaN
             NaN             NaN             NaN
             NaN             NaN             NaN
             NaN             NaN             NaN
             NaN             NaN             NaN
             NaN             NaN             NaN
             NaN             NaN             NaN
             NaN             NaN             NaN
             NaN             NaN             NaN
             NaN             NaN             NaN
