Ca2 Ni4 S6 O24
1.0
7.518626 0.109711 4.421662
2.582835 7.058269 4.416750
0.140103 0.110039 8.722656
Ca Ni S O
2 4 6 24
direct
0.467141 0.543726 0.508723 Ca
0.993018 0.999818 1.000300 Ca
0.646234 0.645614 0.646158 Ni
0.144306 0.146189 0.144932 Ni
0.848135 0.849100 0.848961 Ni
0.351654 0.349362 0.349527 Ni
0.954790 0.247869 0.541309 S
0.449761 0.042257 0.748029 S
0.544704 0.953831 0.245769 S
0.746661 0.452844 0.043714 S
0.248126 0.542119 0.953057 S
0.041628 0.747818 0.452758 S
0.410741 0.563020 0.769937 O
0.905398 0.266971 0.070864 O
0.777943 0.413603 0.559373 O
0.069224 0.906180 0.267709 O
0.565271 0.771758 0.409434 O
0.264674 0.068901 0.907214 O
0.726604 0.928995 0.084068 O
0.218036 0.581297 0.436588 O
0.086543 0.727449 0.929132 O
0.434878 0.222741 0.583927 O
0.929431 0.087435 0.726177 O
0.581802 0.437794 0.223323 O
0.982961 0.198989 0.390940 O
0.477042 0.889546 0.702221 O
0.388980 0.986471 0.201771 O
0.702878 0.481287 0.889611 O
0.199114 0.390545 0.984035 O
0.883907 0.709959 0.484096 O
0.112700 0.285840 0.510437 O
0.600849 0.005560 0.800960 O
0.518277 0.107129 0.288984 O
0.799492 0.602649 0.010480 O
0.294180 0.511916 0.106232 O
0.014078 0.796559 0.603511 O
