Cr8 P16 O52
1.0
7.801003 0.000000 -2.169276
0.000000 8.787000 0.000000
0.000000 0.000000 13.098000
Cr P O
8 16 52
direct
0.957900 0.502600 0.778800 Cr3+
0.042100 0.002600 0.721200 Cr3+
0.042100 0.497400 0.221200 Cr3+
0.957900 0.997400 0.278800 Cr3+
0.562300 0.496700 0.761300 Cr3+
0.437700 0.996700 0.738700 Cr3+
0.437700 0.503300 0.238700 Cr3+
0.562300 0.003300 0.261300 Cr3+
0.501600 0.247700 0.432900 P5+
0.498400 0.747700 0.067100 P5+
0.498400 0.752300 0.567100 P5+
0.501600 0.252300 0.932900 P5+
0.133000 0.257200 0.431000 P5+
0.867000 0.757200 0.069000 P5+
0.867000 0.742800 0.569000 P5+
0.133000 0.242800 0.931000 P5+
0.714000 0.223300 0.658000 P5+
0.286000 0.723300 0.842000 P5+
0.286000 0.776700 0.342000 P5+
0.714000 0.276700 0.158000 P5+
0.214600 0.301200 0.661000 P5+
0.785400 0.801200 0.839000 P5+
0.785400 0.698800 0.339000 P5+
0.214600 0.198800 0.161000 P5+
0.118500 0.327700 0.539700 O2-
0.881500 0.827700 0.960300 O2-
0.881500 0.672300 0.460300 O2-
0.118500 0.172300 0.039700 O2-
0.326100 0.195000 0.456000 O2-
0.673900 0.695000 0.044000 O2-
0.673900 0.805000 0.544000 O2-
0.326100 0.305000 0.956000 O2-
0.617800 0.292300 0.545100 O2-
0.382200 0.792300 0.954900 O2-
0.382200 0.707700 0.454900 O2-
0.617800 0.207700 0.045100 O2-
0.748500 0.370600 0.725500 O2-
0.251500 0.870600 0.774500 O2-
0.251500 0.629400 0.274500 O2-
0.748500 0.129400 0.225500 O2-
0.777100 0.624200 0.824500 O2-
0.222900 0.124200 0.675500 O2-
0.222900 0.375800 0.175500 O2-
0.777100 0.875800 0.324500 O2-
0.582700 0.382700 0.892900 O2-
0.417300 0.882700 0.607100 O2-
0.417300 0.617300 0.107100 O2-
0.582700 0.117300 0.392900 O2-
0.532500 0.610600 0.630200 O2-
0.467500 0.110600 0.869800 O2-
0.467500 0.389400 0.369800 O2-
0.532500 0.889400 0.130200 O2-
0.123500 0.650800 0.851700 O2-
0.876500 0.150800 0.648300 O2-
0.876500 0.349200 0.148300 O2-
0.123500 0.849200 0.351700 O2-
0.896200 0.613300 0.644100 O2-
0.103800 0.113300 0.855900 O2-
0.103800 0.386700 0.355900 O2-
0.896200 0.886700 0.144100 O2-
0.392900 0.360500 0.679800 O2-
0.607100 0.860500 0.820200 O2-
0.607100 0.639500 0.320200 O2-
0.392900 0.139500 0.179800 O2-
0.016900 0.376900 0.906700 O2-
0.983100 0.876900 0.593300 O2-
0.983100 0.623100 0.093300 O2-
0.016900 0.123100 0.406700 O2-
0.399700 0.618400 0.804500 O2-
0.600300 0.118400 0.695500 O2-
0.600300 0.381600 0.195500 O2-
0.399700 0.881600 0.304500 O2-
0.113100 0.378300 0.724900 O2-
0.886900 0.878300 0.775100 O2-
0.886900 0.621700 0.275100 O2-
0.113100 0.121700 0.224900 O2-
