Ca2 Co2 Si4 O12                         
   1.00000000000000     
     0.0321320102297052   -0.0000314904453698    5.2551308656709663
    -4.7231016894801918    4.4292664738049767    1.2769000937729142
    -4.7231024074286330   -4.4292697109497405    1.2769425971554742
   Ca   Co   Si   O 
     2     2     4    12
Direct
  0.7500247507702180  0.7011052106218447  0.2987878412638910
  0.2500228468331309  0.2987886882416846  0.7011071442094612
  0.7495937207713957  0.0913296074900564  0.9089670112434232
  0.2495995726541254  0.9089662563908866  0.0913132439330816
  0.7341023197424031  0.6190082513267354  0.8054380441504966
  0.7660442699970510  0.1945404922811570  0.3810476986074482
  0.2660463307478015  0.3810456600546906  0.1945449735606243
  0.2341032177643232  0.8054376386226482  0.6190086194040392
  0.6531572152026776  0.7935119892064803  0.9691244772378805
  0.8467125600809453  0.0309198099299033  0.2064859922731565
  0.3467043827777425  0.2064923209797884  0.0309216742401760
  0.1531444301288740  0.9691268998704970  0.7935101445418929
  0.8222227763666957  0.3865238541919622  0.8889953220867368
  0.6778794866067476  0.1109278131397955  0.6134778088979387
  0.1778925954721516  0.6134797000057961  0.1109289286410643
  0.3222272579934236  0.8889879270086330  0.3865193241185564
  0.4971087957701333  0.6298220818069549  0.6668122326919488
  0.0031492713415021  0.3330459851895038  0.3701389994367623
  0.5031508941345445  0.3701347069536620  0.3330477477591652
  0.9971133048441062  0.6668051066873266  0.6298227717022632
 
  0.00000000E+00  0.00000000E+00  0.00000000E+00
  0.00000000E+00  0.00000000E+00  0.00000000E+00
  0.00000000E+00  0.00000000E+00  0.00000000E+00
  0.00000000E+00  0.00000000E+00  0.00000000E+00
  0.00000000E+00  0.00000000E+00  0.00000000E+00
  0.00000000E+00  0.00000000E+00  0.00000000E+00
  0.00000000E+00  0.00000000E+00  0.00000000E+00
  0.00000000E+00  0.00000000E+00  0.00000000E+00
  0.00000000E+00  0.00000000E+00  0.00000000E+00
  0.00000000E+00  0.00000000E+00  0.00000000E+00
  0.00000000E+00  0.00000000E+00  0.00000000E+00
  0.00000000E+00  0.00000000E+00  0.00000000E+00
  0.00000000E+00  0.00000000E+00  0.00000000E+00
  0.00000000E+00  0.00000000E+00  0.00000000E+00
  0.00000000E+00  0.00000000E+00  0.00000000E+00
  0.00000000E+00  0.00000000E+00  0.00000000E+00
  0.00000000E+00  0.00000000E+00  0.00000000E+00
  0.00000000E+00  0.00000000E+00  0.00000000E+00
  0.00000000E+00  0.00000000E+00  0.00000000E+00
  0.00000000E+00  0.00000000E+00  0.00000000E+00
