Cr8 S12                                 
   1.00000000000000     
     6.0012400797253136    0.0000441858901286   -0.0000100495783313
    -3.0005818216695626    5.1972483917447923   -0.0000102055701477
    -0.0000209733395523   -0.0000368159617607   11.2341925838113514
   Cr   S 
     8    12
Direct
  0.3333343818949217  0.6666659320710764  0.2499874398988666
  0.6666659416129193  0.3333343844111525  0.7499873929002092
  0.9999997391042541  0.0000000565537732  0.5000522864461630
  0.0000000668763462  0.9999997520523749  0.0000509630322156
  0.3333311687094351  0.6666641697429938  0.5157335258771809
  0.6666641488248430  0.3333311467097104  0.0157332388436799
  0.6666684950158412  0.3333353422381649  0.4842439349991494
  0.3333353687157512  0.6666685200947597  0.9842435626820460
  0.6548511336331657  0.9796293759664607  0.1174867483392106
  0.3247806761014189  0.3451480284862782  0.1174876515295296
  0.0203730933276631  0.6752271302997741  0.1174889560508277
  0.3451480369563669  0.3247808620748032  0.6174879007577871
  0.9796295566627364  0.6548511535982939  0.6174869850552298
  0.6752269353969922  0.0203729275154245  0.6174891892959593
  0.3451409266686625  0.0203682481961849  0.8825075132085303
  0.6752251745369122  0.6548601688352491  0.8825068474076048
  0.9796295814767220  0.3247671497836038  0.8825053965725758
  0.6548601967820105  0.6752253257815752  0.3825070736106966
  0.0203683781581745  0.3451408816669783  0.3825077568842090
  0.3247669995448632  0.9796294439213682  0.3825056366083288
 
  0.00000000E+00  0.00000000E+00  0.00000000E+00
  0.00000000E+00  0.00000000E+00  0.00000000E+00
  0.00000000E+00  0.00000000E+00  0.00000000E+00
  0.00000000E+00  0.00000000E+00  0.00000000E+00
  0.00000000E+00  0.00000000E+00  0.00000000E+00
  0.00000000E+00  0.00000000E+00  0.00000000E+00
  0.00000000E+00  0.00000000E+00  0.00000000E+00
  0.00000000E+00  0.00000000E+00  0.00000000E+00
  0.00000000E+00  0.00000000E+00  0.00000000E+00
  0.00000000E+00  0.00000000E+00  0.00000000E+00
  0.00000000E+00  0.00000000E+00  0.00000000E+00
  0.00000000E+00  0.00000000E+00  0.00000000E+00
  0.00000000E+00  0.00000000E+00  0.00000000E+00
  0.00000000E+00  0.00000000E+00  0.00000000E+00
  0.00000000E+00  0.00000000E+00  0.00000000E+00
  0.00000000E+00  0.00000000E+00  0.00000000E+00
  0.00000000E+00  0.00000000E+00  0.00000000E+00
  0.00000000E+00  0.00000000E+00  0.00000000E+00
  0.00000000E+00  0.00000000E+00  0.00000000E+00
  0.00000000E+00  0.00000000E+00  0.00000000E+00
