Ca1 V4 P6 O24                           
   1.00000000000000     
     2.5545529999999999    7.0067670000000000    4.4663120000000003
     0.2148490000000000    0.1435040000000000    8.7121289999999991
     7.4554340000000003    0.1122890000000000    4.4976269999999996
   Ca   V    P    O 
     1     4     6    24
Direct
  0.2612028018204977  0.7835336609739078  0.5560552792161993
  0.6529869549898523  0.6344747756297324  0.6368195489189225
  0.1355789872024316  0.1495185323231365  0.1393358043417628
  0.8388126228624095  0.8484765974559471  0.8646852986738779
  0.3629670204361298  0.3495573365820382  0.3616656876619744
  0.2543294868796315  0.5204881950789390  0.9647582621189388
  0.0229361538614610  0.7429992804642845  0.4642770835532317
  0.9739308615512784  0.2489517093439879  0.5198292270026201
  0.4529576580050990  0.0270361635562703  0.7537392401700101
  0.5466836522270860  0.9691132264252404  0.2423064369608538
  0.7456613582487580  0.4684267504974199  0.0398169452624841
  0.5763333681376481  0.7698679995797528  0.4107015421562669
  0.2908661267095863  0.0280235936322146  0.9447370494369070
  0.4217286069380264  0.5639050616568814  0.7748420921696929
  0.9300110500774711  0.2915549045301572  0.0443280267296880
  0.7881876077522290  0.4008313677536796  0.5975795777561120
  0.0447242955118081  0.9429621889767528  0.3224683391466719
  0.9789441897339045  0.0426465189249756  0.6604071436651441
  0.5753652637746888  0.4209579359493949  0.2210874152833696
  0.7118963315246921  0.9627353303326721  0.0532317462799778
  0.2221707479978137  0.5918527545544729  0.4154915729249436
  0.0763345661447967  0.6996242267633691  0.9217534539770191
  0.4151458021946877  0.2252662006311231  0.5954235339821486
  0.2426868392587683  0.3430040520396805  0.9790863481297138
  0.8657624704699093  0.7225579010821870  0.4575355010862089
  0.9840480601862461  0.2793384049906559  0.3262088636978228
  0.4891120567491485  0.8698943671837088  0.6962441590965427
  0.3543448632552765  1.0011619032401009  0.2423890763978590
  0.7091204752469674  0.5226519534547193  0.8625330728900601
  0.2795525349683280  0.4919541187367018  0.1359661554409258
 -0.0168913050021004  0.7258849675257860  0.6655953219110667
  0.1458585800218575  0.2738023234593135  0.5006278536870884
  0.6409728592680389  0.9858219505654404  0.7737931216956352
  0.5243161370159860  0.1207366168089816  0.2944405748105468
  0.7531373545018017  0.6377111435413730  0.0437898531914822
 
             NaN             NaN             NaN
             NaN             NaN             NaN
             NaN             NaN             NaN
             NaN             NaN             NaN
             NaN             NaN             NaN
             NaN             NaN             NaN
             NaN             NaN             NaN
             NaN             NaN             NaN
             NaN             NaN             NaN
             NaN             NaN             NaN
             NaN             NaN             NaN
             NaN             NaN             NaN
             NaN             NaN             NaN
             NaN             NaN             NaN
             NaN             NaN             NaN
             NaN             NaN             NaN
             NaN             NaN             NaN
             NaN             NaN             NaN
             NaN             NaN             NaN
             NaN             NaN             NaN
             NaN             NaN             NaN
             NaN             NaN             NaN
             NaN             NaN             NaN
             NaN             NaN             NaN
             NaN             NaN             NaN
             NaN             NaN             NaN
             NaN             NaN             NaN
             NaN             NaN             NaN
             NaN             NaN             NaN
             NaN             NaN             NaN
             NaN             NaN             NaN
             NaN             NaN             NaN
             NaN             NaN             NaN
             NaN             NaN             NaN
             NaN             NaN             NaN
