Ca1 Fe4 S6 O24                          
   1.00000000000000     
     7.5783899999999997    0.1828480000000000    4.5485530000000001
     2.6593680000000002    7.0924800000000001    4.5664860000000003
     0.2632410000000000    0.2063500000000000    8.8398529999999997
   Ca   Fe   S    O 
     1     4     6    24
Direct
  0.2687750254935553  0.7671189885578423  0.5554707958202836
  0.6648575757920369  0.6315773005048322  0.6453589329391733
  0.1431425433588903  0.1520531962443596  0.1337957042388713
  0.8286342557211038  0.8503923652818568  0.8570203181450954
  0.3563182786123429  0.3508095095727617  0.3603781558004211
  0.9700385966043462  0.2437283069286248  0.5227934591829706
  0.4507119800604141  0.0387002950118008  0.7514127534675916
  0.5471897483785264  0.9638586927882740  0.2455733947060506
  0.7408430476265817  0.4605854341357148  0.0529050200983862
  0.2580479092047738  0.5272349283660777  0.9564567359423736
  0.0306134342059646  0.7453363020583834  0.4520875580233302
  0.4185196751064095  0.5776188951056905  0.7756884875449954
  0.9318353938280903  0.3131256640235542  0.0316946230309650
  0.7869818868028594  0.3674403355163559  0.6152224400839159
  0.0188755456499395  0.9438478231130207  0.3303496008823356
  0.5846629744750181  0.7733609433343401  0.4017666063441100
  0.3091857841383150  0.0124927072248769  0.9481802427173577
  0.6980302743968765  0.9604503541913627  0.0617707306241794
  0.2320903384010453  0.6182170780716254  0.3920988189334855
  0.0852379693019064  0.6897530388367328  0.9185114289009266
  0.3764277255668951  0.2316621077792145  0.6216577080504638
  0.9914753519376238  0.0369966304168614  0.6420145743675366
  0.6021057861830074  0.3920810639357770  0.2402822210038019
  0.9825987318999986  0.2830130687379250  0.3333177564549642
  0.4913875125309963  0.8914581414730507  0.6913873230253229
  0.3597617546858231  0.9946350440869488  0.2520672095581919
  0.6870324045377186  0.5060748941301201  0.8993883383475844
  0.2645516177636942  0.3523550670986244  0.9696811584765980
  0.9013317821110609  0.6952637313523078  0.4485436509572185
  0.1283183825005562  0.2710753530572975  0.5066000330127851
  0.6282086859476413  0.0228671613092633  0.7460820176252307
  0.5265955228893265  0.1109344971461785  0.2889675259948459
  0.7383541205748179  0.6333992744784684  0.0433183819264541
  0.2765300109794668  0.5064356531467784  0.1197696405096746
  0.9866148642719293  0.7173098812749590  0.6516588276970730
 
             NaN             NaN             NaN
             NaN             NaN             NaN
             NaN             NaN             NaN
             NaN             NaN             NaN
             NaN             NaN             NaN
             NaN             NaN             NaN
             NaN             NaN             NaN
             NaN             NaN             NaN
             NaN             NaN             NaN
             NaN             NaN             NaN
             NaN             NaN             NaN
             NaN             NaN             NaN
             NaN             NaN             NaN
             NaN             NaN             NaN
             NaN             NaN             NaN
             NaN             NaN             NaN
             NaN             NaN             NaN
             NaN             NaN             NaN
             NaN             NaN             NaN
             NaN             NaN             NaN
             NaN             NaN             NaN
             NaN             NaN             NaN
             NaN             NaN             NaN
             NaN             NaN             NaN
             NaN             NaN             NaN
             NaN             NaN             NaN
             NaN             NaN             NaN
             NaN             NaN             NaN
             NaN             NaN             NaN
             NaN             NaN             NaN
             NaN             NaN             NaN
             NaN             NaN             NaN
             NaN             NaN             NaN
             NaN             NaN             NaN
             NaN             NaN             NaN
