Ca1 Fe4 S6 O24                          
   1.00000000000000     
     7.5783899999999997    0.1828480000000000    4.5485530000000001
     2.6593680000000002    7.0924800000000001    4.5664860000000003
     0.2632410000000000    0.2063500000000000    8.8398529999999997
   Ca   Fe   S    O 
     1     4     6    24
Direct
  0.2687827508184091  0.7670948361463632  0.5554595031642652
  0.6648842168850224  0.6315616661761668  0.6453632715322535
  0.1431388928175123  0.1520499345611263  0.1338088054986965
  0.8286118291583902  0.8504103857684814  0.8569541796511569
  0.3564058209582270  0.3508180626287801  0.3603156664756164
  0.9700665896554911  0.2437411765964540  0.5227829511875453
  0.4507049830832577  0.0387436008118133  0.7513883616708307
  0.5471831231490218  0.9638873309437672  0.2455821220360229
  0.7407935898289814  0.4605824307842182  0.0529564098282027
  0.2580435791416038  0.5272294096227134  0.9564992548944620
  0.0306411179949813  0.7453038299218365  0.4520719270371197
  0.4184923681352737  0.5776263851426602  0.7757024161587327
  0.9318575314244235  0.3131133840563098  0.0317126978565304
  0.7869937167979638  0.3674149017282412  0.6152248702104647
  0.0188859807835627  0.9438610016496314  0.3303079602837165
  0.5846317869759230  0.7733687049492430  0.4017923569204745
  0.3091805382867335  0.0124874754827842  0.9481637875201312
  0.6979970044070872  0.9604773240156138  0.0618324422441209
  0.2320922907922213  0.6181725639363990  0.3921076747139524
  0.0852643193956793  0.6897053761615198  0.9185363736557506
  0.3764330001735340  0.2316857297722950  0.6216005073203432
  0.9915253605848738  0.0370007005056652  0.6419892016596161
  0.6020503084873912  0.3920616546666225  0.2402966029062998
  0.9826027946642081  0.2830270028928777  0.3333112883623420
  0.4914051237067688  0.8914798805333548  0.6913542285297717
  0.3597322829939699  0.9946432889253981  0.2520855954992971
  0.6870169256417310  0.5060390508961637  0.8994204475013272
  0.2645805748818767  0.3523103431532807  0.9697027254395811
  0.9013581259711416  0.6952415103448935  0.4485187082688791
  0.1283720246756092  0.2710947178209875  0.5065548535110135
  0.6281817433872645  0.0229139123485028  0.7460686276908320
  0.5265130213106637  0.1110126855806647  0.2889848850284151
  0.7382895395789004  0.6333817900398865  0.0433676011172051
  0.2765340055439507  0.5064149745746406  0.1198290687363447
  0.9866395002924523  0.7173069052397975  0.6516248480683703
 
             NaN             NaN             NaN
             NaN             NaN             NaN
             NaN             NaN             NaN
             NaN             NaN             NaN
             NaN             NaN             NaN
             NaN             NaN             NaN
             NaN             NaN             NaN
             NaN             NaN             NaN
             NaN             NaN             NaN
             NaN             NaN             NaN
             NaN             NaN             NaN
             NaN             NaN             NaN
             NaN             NaN             NaN
             NaN             NaN             NaN
             NaN             NaN             NaN
             NaN             NaN             NaN
             NaN             NaN             NaN
             NaN             NaN             NaN
             NaN             NaN             NaN
             NaN             NaN             NaN
             NaN             NaN             NaN
             NaN             NaN             NaN
             NaN             NaN             NaN
             NaN             NaN             NaN
             NaN             NaN             NaN
             NaN             NaN             NaN
             NaN             NaN             NaN
             NaN             NaN             NaN
             NaN             NaN             NaN
             NaN             NaN             NaN
             NaN             NaN             NaN
             NaN             NaN             NaN
             NaN             NaN             NaN
             NaN             NaN             NaN
             NaN             NaN             NaN
