Ca4 V4 P6 O24
1.0
2.580617 7.264323 4.391832
-0.006233 0.069813 8.767824
7.660850 0.072623 4.260686
Ca V P O
4 4 6 24
direct
0.498331 0.524577 0.507719 Ca
0.962537 0.001146 0.021965 Ca
0.394648 0.745929 0.093532 Ca
0.109498 0.406479 0.747320 Ca
0.647615 0.640451 0.633276 V
0.148938 0.146252 0.151133 V
0.847087 0.861052 0.854974 V
0.347821 0.344459 0.350981 V
0.247927 0.553782 0.943748 P
0.037891 0.752001 0.449447 P
0.961330 0.244997 0.557306 P
0.456769 0.044083 0.743246 P
0.535005 0.939476 0.252253 P
0.747823 0.454573 0.040816 P
0.566353 0.755076 0.408041 O
0.263569 0.068328 0.907579 O
0.411309 0.568948 0.759452 O
0.919618 0.278625 0.058762 O
0.777037 0.407648 0.562576 O
0.072375 0.908418 0.263352 O
0.932033 0.087172 0.740852 O
0.579120 0.429475 0.218071 O
0.717534 0.937708 0.087635 O
0.231533 0.588943 0.424146 O
0.082587 0.737063 0.929349 O
0.423507 0.231300 0.588624 O
0.197169 0.395357 0.973483 O
0.885624 0.701918 0.475045 O
0.024500 0.185482 0.393956 O
0.489530 0.872427 0.712432 O
0.389923 0.951039 0.195503 O
0.724965 0.483264 0.867075 O
0.298734 0.524965 0.101641 O
0.004688 0.778285 0.624130 O
0.105033 0.303391 0.546114 O
0.607917 1.014122 0.797567 O
0.471754 0.102108 0.312846 O
0.767001 0.627615 0.019021 O
