Ca4 V4 P6 O24                           
   1.00000000000000     
     2.5801440000000002    7.2764550000000003    4.3470389999999997
     0.0181490000000000    0.0329110000000000    8.8220759999999991
     7.6979080000000000    0.0298450000000000    4.3189940000000000
   Ca   V    P    O 
     4     4     6    24
Direct
  0.2480492326319889  0.8777241922979022  0.5894786891833004
  0.9646542039804975  0.9979778192032862  0.0222964745521819
  0.4043838917964419  0.7422744234672494  0.1092029940584204
  0.1495618948656475  0.3945627248652487  0.7449861033385042
  0.6493048695474803  0.6223669485989139  0.6339391714128839
  0.1432248300771116  0.1432764582830326  0.1515172451768882
  0.8466006867317358  0.8533043814032875  0.8507972932616862
  0.3603450040410878  0.3468300834268322  0.3487050472931053
  0.2494381363457161  0.5510566178100947  0.9497546298643161
  0.0407132356468017  0.7462883038188038  0.4498741738179152
  0.9648689385416717  0.2489421242482235  0.5562697188417030
  0.4496803684335302  0.0258876240221778  0.7437015195549037
  0.5452398764118047  0.9436931207695478  0.2451169815805624
  0.7524224796163597  0.4483468539948693  0.0262304539294099
  0.5639955614899627  0.7749122529859890  0.4181933082653865
  0.2589836793446857  0.0587082950879497  0.9065275479136559
  0.4034305592789005  0.5705395008994186  0.7604254897079489
  0.9216214151427752  0.2715755522174300  0.0399730933254191
  0.7859807052874157  0.4074044749411944  0.5539629938459482
  0.0712640981786294  0.9013487777298514  0.2627454974954645
  0.9367009864082638  0.0824999628904643  0.7383981274621433
  0.5874114194006060  0.4351473716962528  0.2035792021892596
  0.7247426360422228  0.9201313299059717  0.0849086832123988
  0.2282204315336173  0.5853496196704006  0.4259868740399890
  0.0919380887762763  0.7407609968139240  0.9155708444689291
  0.4353960791342855  0.2078013364537233  0.5868455966190401
  0.1936877779732087  0.3936962091825300  0.9895158342981744
  0.8793847953979179  0.6984967460255918  0.4968320897253126
  0.0495587410056208  0.1696574500152108  0.4027189339209254
  0.4635098509460497  0.8642632864931907  0.7084218353824790
  0.3859382859973732  0.9464082969103520  0.2155396672563120
  0.7051674894123986  0.4806246432487820  0.8657883301797482
  0.2949478583778290  0.5326798076369845  0.1047604231601198
  0.0244749509616328  0.7885857920067288  0.6085247140755685
  0.1138508264439639  0.2946283717063916  0.5539807817251947
  0.5966644541451125  0.9638680889310456  0.8205404641063144
  0.4909278786027814  0.1164483847926536  0.2822480837133368
  0.8033434054223667  0.6093301693742282  0.9834143979011740
 
             NaN             NaN             NaN
             NaN             NaN             NaN
             NaN             NaN             NaN
             NaN             NaN             NaN
             NaN             NaN             NaN
             NaN             NaN             NaN
             NaN             NaN             NaN
             NaN             NaN             NaN
             NaN             NaN             NaN
             NaN             NaN             NaN
             NaN             NaN             NaN
             NaN             NaN             NaN
             NaN             NaN             NaN
             NaN             NaN             NaN
             NaN             NaN             NaN
             NaN             NaN             NaN
             NaN             NaN             NaN
             NaN             NaN             NaN
             NaN             NaN             NaN
             NaN             NaN             NaN
             NaN             NaN             NaN
             NaN             NaN             NaN
             NaN             NaN             NaN
             NaN             NaN             NaN
             NaN             NaN             NaN
             NaN             NaN             NaN
             NaN             NaN             NaN
             NaN             NaN             NaN
             NaN             NaN             NaN
             NaN             NaN             NaN
             NaN             NaN             NaN
             NaN             NaN             NaN
             NaN             NaN             NaN
             NaN             NaN             NaN
             NaN             NaN             NaN
             NaN             NaN             NaN
             NaN             NaN             NaN
             NaN             NaN             NaN
