Ca4 V4 P6 O24                           
   1.00000000000000     
     2.5801440000000002    7.2764550000000003    4.3470389999999997
     0.0181490000000000    0.0329110000000000    8.8220759999999991
     7.6979080000000000    0.0298450000000000    4.3189940000000000
   Ca   V    P    O 
     4     4     6    24
Direct
  0.2480331390877693  0.8777502272307954  0.5894940175689125
  0.9646729861570751  0.9979990346160502  0.0222778929666220
  0.4044105303467839  0.7422352503653529  0.1091998658495098
  0.1495494322350676  0.3945346491732323  0.7450241971859227
  0.6492932676810476  0.6223329866417873  0.6339884386882064
  0.1432061532449103  0.1432524280372863  0.1515451896470055
  0.8466721909378704  0.8532946819623118  0.8508291199061409
  0.3602324872010266  0.3468836915417305  0.3485973724187834
  0.2494195724998531  0.5510625780516326  0.9497958140372653
  0.0407094337048159  0.7462278051021469  0.4498473220892408
  0.9649036006667598  0.2490233200558981  0.5562704854855312
  0.4496718145366221  0.0259242657282927  0.7436874162256462
  0.5451464165079704  0.9437092773888340  0.2451581461058536
  0.7523402791800424  0.4483393342944986  0.0263597348946663
  0.5639864527562415  0.7749895824703714  0.4181472215321729
  0.2589636512871906  0.0587109149371379  0.9065437323195149
  0.4034231993882034  0.5705354746239687  0.7604359020788395
  0.9216633062050791  0.2715464444232215  0.0399572317010331
  0.7859630995189888  0.4074191423621604  0.5539435096572651
  0.0712831020919921  0.9013625519890749  0.2627690313688567
  0.9367368632055482  0.0825316649560023  0.7383663898509503
  0.5874570267951228  0.4352048903227987  0.2035040154338584
  0.7247714908396694  0.9201149757927020  0.0848405698875423
  0.2283051789461290  0.5853087454591779  0.4259723226555702
  0.0919586170685134  0.7407653857526160  0.9155767995841724
  0.4353705248736843  0.2078194604909558  0.5868383187711617
  0.1936978166683802  0.3936653524521487  0.9895182725492411
  0.8794041835990977  0.6985145530353989  0.4968147512833961
  0.0495654704064517  0.1696294213313504  0.4027110795688511
  0.4635088069696734  0.8642605156631893  0.7084174702037080
  0.3859737160977862  0.9463547219957420  0.2155245713710032
  0.7051848007901033  0.4806424352998828  0.8657424060320236
  0.2949752620146854  0.5326401406503051  0.1047491933822288
  0.0244290229871587  0.7886162674455303  0.6085815104314218
  0.1138517457434544  0.2945524282765628  0.5540240330104418
  0.5966078473821195  0.9638914500484530  0.8205426049742440
  0.4909656405313637  0.1164649076257758  0.2822630128463289
  0.8033197867365660  0.6092899790692102  0.9834149252281080
 
             NaN             NaN             NaN
             NaN             NaN             NaN
             NaN             NaN             NaN
             NaN             NaN             NaN
             NaN             NaN             NaN
             NaN             NaN             NaN
             NaN             NaN             NaN
             NaN             NaN             NaN
             NaN             NaN             NaN
             NaN             NaN             NaN
             NaN             NaN             NaN
             NaN             NaN             NaN
             NaN             NaN             NaN
             NaN             NaN             NaN
             NaN             NaN             NaN
             NaN             NaN             NaN
             NaN             NaN             NaN
             NaN             NaN             NaN
             NaN             NaN             NaN
             NaN             NaN             NaN
             NaN             NaN             NaN
             NaN             NaN             NaN
             NaN             NaN             NaN
             NaN             NaN             NaN
             NaN             NaN             NaN
             NaN             NaN             NaN
             NaN             NaN             NaN
             NaN             NaN             NaN
             NaN             NaN             NaN
             NaN             NaN             NaN
             NaN             NaN             NaN
             NaN             NaN             NaN
             NaN             NaN             NaN
             NaN             NaN             NaN
             NaN             NaN             NaN
             NaN             NaN             NaN
             NaN             NaN             NaN
             NaN             NaN             NaN
