Ca1 Mn4 P6 O24
1.0
2.704680 6.803749 4.515538
0.480126 0.276219 8.585752
7.347502 0.278796 4.467919
Ca Mn P O
1 4 6 24
direct
0.497372 0.497474 0.497422 Ca
0.642546 0.642562 0.642933 Mn
0.145444 0.145183 0.145483 Mn
0.849861 0.849847 0.849487 Mn
0.352415 0.352453 0.352329 Mn
0.244951 0.529898 0.964075 P
0.031003 0.750164 0.465095 P
0.963947 0.244996 0.529794 P
0.465072 0.030919 0.750191 P
0.529905 0.964016 0.244889 P
0.750171 0.464996 0.030943 P
0.613348 0.751024 0.390869 O
0.317359 0.005311 0.966370 O
0.390854 0.613178 0.750850 O
0.966383 0.317305 0.005302 O
0.750896 0.390921 0.613125 O
0.005313 0.966266 0.316996 O
0.989793 0.028821 0.677842 O
0.604240 0.381715 0.244177 O
0.677563 0.989677 0.028676 O
0.244038 0.604151 0.381763 O
0.028670 0.677574 0.989694 O
0.381508 0.243987 0.604247 O
0.283636 0.326848 0.974041 O
0.876014 0.694792 0.491638 O
0.973402 0.283309 0.327151 O
0.490895 0.875966 0.695272 O
0.326976 0.973366 0.283764 O
0.694832 0.490481 0.876432 O
0.299828 0.504475 0.118835 O
0.021713 0.711800 0.667687 O
0.119039 0.300098 0.503428 O
0.668001 0.021480 0.711267 O
0.503891 0.119250 0.299545 O
0.711523 0.668099 0.020786 O
