Ca1 Fe4 P6 O24                          
   1.00000000000000     
     2.7123770000000000    6.9288249999999998    4.6519209999999998
     0.3922760000000000    0.2908100000000000    8.7592230000000004
     7.3969779999999998    0.3046590000000000    4.6391799999999996
   Ca   Fe   P    O 
     1     4     6    24
Direct
  0.3564511627743758  0.6497860526273098  0.5221621065117120
  0.6522304568894879  0.6377165974011519  0.6470895365201124
  0.1453239498011543  0.1578642670365111  0.1471650723444482
  0.8394735702740607  0.8499935848514809  0.8463047859866791
  0.3538504346030481  0.3488731005856963  0.3634502634105837
  0.2353542108194471  0.5302156683421083  0.9779591054024468
  0.0163270730301989  0.7695530387377892  0.4498402847664086
  0.9695213259242292  0.2355336881599652  0.5346835028599893
  0.4496882796719326  0.0378904430589311  0.7620775114616488
  0.5421172363730811  0.9722479597871513  0.2329916603635838
  0.7520628421128690  0.4654848369624168  0.0438390198906066
  0.5946726339325608  0.7676629100534883  0.3922689807475195
  0.3049082228062281  0.0150559986008608  0.9804123497169279
  0.3990272496042298  0.5920240281172279  0.7820526340883093
  0.9703448125023322  0.3211625561771221  0.0180794575240845
  0.7685038113380870  0.3827806348679632  0.6094450589890238
  0.0064460304929603  0.9846058578895349  0.3249994037415105
  0.9865715634013976  0.0155231560066258  0.6590988597880469
  0.6037314347528714  0.3968770553461127  0.2479989783481952
  0.6949766195677571  0.9814615911535474  0.0202584286481499
  0.2264278042612054  0.6249806640092497  0.3803441562177163
  0.0341937031931111  0.6820185471259780  0.9591027718144010
  0.3801402903442494  0.2481913651910497  0.6202568096705343
  0.2795454681126884  0.3285280906991308  0.9787784168362719
  0.8640592778134915  0.7380000518367424  0.4543986175020553
  0.9927972305729654  0.2882551721364096  0.3189453113662721
  0.4781886951799599  0.8790554285117185  0.7185820798155442
  0.3361951319657050  0.9874799194958086  0.2699444657760916
  0.7251389138780581  0.4918574305933325  0.8739024459865042
  0.2465401177791023  0.5098004337999069  0.1524768279476616
 -0.0047798789420372  0.7162144080819685  0.6658110512576241
  0.1386140382696187  0.2473794545140191  0.5268535881971907
  0.6562308622811495  0.0142737121967060  0.7319416202036729
  0.5264089824896888  0.1353675540786982  0.2596462577921584
  0.7157394482474753  0.6703686708373994  0.0278392187804926
 
             NaN             NaN             NaN
             NaN             NaN             NaN
             NaN             NaN             NaN
             NaN             NaN             NaN
             NaN             NaN             NaN
             NaN             NaN             NaN
             NaN             NaN             NaN
             NaN             NaN             NaN
             NaN             NaN             NaN
             NaN             NaN             NaN
             NaN             NaN             NaN
             NaN             NaN             NaN
             NaN             NaN             NaN
             NaN             NaN             NaN
             NaN             NaN             NaN
             NaN             NaN             NaN
             NaN             NaN             NaN
             NaN             NaN             NaN
             NaN             NaN             NaN
             NaN             NaN             NaN
             NaN             NaN             NaN
             NaN             NaN             NaN
             NaN             NaN             NaN
             NaN             NaN             NaN
             NaN             NaN             NaN
             NaN             NaN             NaN
             NaN             NaN             NaN
             NaN             NaN             NaN
             NaN             NaN             NaN
             NaN             NaN             NaN
             NaN             NaN             NaN
             NaN             NaN             NaN
             NaN             NaN             NaN
             NaN             NaN             NaN
             NaN             NaN             NaN
