Ca1 Fe4 P6 O24
1.0
2.712377 6.928825 4.651921
0.392276 0.290810 8.759223
7.396978 0.304659 4.639180
Ca Fe P O
1 4 6 24
direct
0.405646 0.641095 0.547247 Ca
0.650158 0.640623 0.642322 Fe
0.147841 0.150124 0.148382 Fe
0.842180 0.842846 0.846743 Fe
0.354425 0.352512 0.353009 Fe
0.237427 0.532254 0.966575 P
0.034676 0.758265 0.457092 P
0.959142 0.242134 0.531388 P
0.454634 0.030569 0.759677 P
0.536776 0.967243 0.234075 P
0.760430 0.454213 0.035370 P
0.601091 0.764182 0.386702 O
0.318576 0.009476 0.978832 O
0.389562 0.599174 0.763703 O
0.976885 0.310485 0.011605 O
0.758550 0.391633 0.600064 O
0.014445 0.975940 0.319093 O
0.968840 0.028029 0.672752 O
0.614342 0.384525 0.241953 O
0.676980 0.980399 0.018724 O
0.240052 0.613270 0.384179 O
0.028545 0.686258 0.970907 O
0.383461 0.237759 0.615522 O
0.273950 0.329446 0.979766 O
0.871749 0.727257 0.477582 O
0.979907 0.284831 0.321183 O
0.467252 0.873527 0.724451 O
0.325264 0.987870 0.280271 O
0.724591 0.480837 0.871971 O
0.262801 0.512553 0.132821 O
0.018137 0.716248 0.665949 O
0.126448 0.258967 0.519200 O
0.666808 0.000823 0.717868 O
0.520922 0.128755 0.263869 O
0.725805 0.658686 0.019096 O
