Ca1 Co4 S6 O24                          
   1.00000000000000     
     7.5172312898164719    0.2108332789141727    4.5759439040007841
     2.8261760563416063    6.8524616454185168    4.7870900187312113
     0.5786208590209885    0.1779906788192796    8.7552662967662762
   Ca   Co   S    O 
     1     4     6    24
Direct
  0.0112235098449602  0.9712845707000852  0.0090537138828211
  0.6477889781568962  0.6470866020914130  0.6464860116060933
  0.1465556038121250  0.1446338712666275  0.1464623183929490
  0.8448051034578512  0.8528703760538718  0.8538637498777177
  0.3458601785273103  0.3527600134646889  0.3430211081180516
  0.9636485711373126  0.2479260176963436  0.5346152737803109
  0.4457290773501867  0.0382409221677875  0.7548655543161260
  0.5319504494231211  0.9674151205922215  0.2469772805900874
  0.7549693012333165  0.4475744630656635  0.0394772680422122
  0.2468602369681392  0.5381800101129883  0.9604086017787949
  0.0414342639282950  0.7498226798828966  0.4472826511865122
  0.4539131966504115  0.4968745346654444  0.8312419141726579
  0.8864080636224472  0.2406487386343485  0.1322083559611542
  0.8301383476288535  0.4528323879017719  0.4927108088293082
  0.1376177969756895  0.8847057416049680  0.2434172245107220
  0.4929557008585519  0.8415077676587330  0.4567229683204204
  0.2399882761707062  0.1362898214498429  0.8846559310143363
  0.7389680323015000  0.8797065941092939  0.1216677233818615
  0.1840807076732602  0.5450360199258810  0.4734802178835409
  0.1214330169823157  0.7414906458370751  0.8662516638641407
  0.4733866533888360  0.1649245700404833  0.5446192350343537
  0.8826586666026301  0.1197308210539134  0.7436822563602519
  0.5469419421298198  0.4674278300598829  0.1742347267061248
  0.0002977777968454  0.1707642460498846  0.4016220425028223
  0.4465124220040266  0.8483083567845497  0.8024880182266472
  0.3970348726038111  0.9899932697071350  0.1813059783495490
  0.7941567139735426  0.4618887007979566  0.8462231564736484
  0.1778980553816680  0.3957682407638288  0.0040516518235449
  0.8644807911134649  0.7817542448314398  0.4358212420790863
  0.1559239864172284  0.2216952035101656  0.5163323347544306
  0.5929105993616943  0.0172394514438636  0.7983101563192463
  0.5139974500709172  0.1642108404278773  0.2040021864216115
  0.7945957860740833  0.5935800430829801  0.0240506292012128
  0.2074084302444348  0.5403191685182449  0.1491762353370234
  0.9978674401337813  0.7979081140458533  0.6016098109006620
 
  0.00000000E+00  0.00000000E+00  0.00000000E+00
  0.00000000E+00  0.00000000E+00  0.00000000E+00
  0.00000000E+00  0.00000000E+00  0.00000000E+00
  0.00000000E+00  0.00000000E+00  0.00000000E+00
  0.00000000E+00  0.00000000E+00  0.00000000E+00
  0.00000000E+00  0.00000000E+00  0.00000000E+00
  0.00000000E+00  0.00000000E+00  0.00000000E+00
  0.00000000E+00  0.00000000E+00  0.00000000E+00
  0.00000000E+00  0.00000000E+00  0.00000000E+00
  0.00000000E+00  0.00000000E+00  0.00000000E+00
  0.00000000E+00  0.00000000E+00  0.00000000E+00
  0.00000000E+00  0.00000000E+00  0.00000000E+00
  0.00000000E+00  0.00000000E+00  0.00000000E+00
  0.00000000E+00  0.00000000E+00  0.00000000E+00
  0.00000000E+00  0.00000000E+00  0.00000000E+00
  0.00000000E+00  0.00000000E+00  0.00000000E+00
  0.00000000E+00  0.00000000E+00  0.00000000E+00
  0.00000000E+00  0.00000000E+00  0.00000000E+00
  0.00000000E+00  0.00000000E+00  0.00000000E+00
  0.00000000E+00  0.00000000E+00  0.00000000E+00
  0.00000000E+00  0.00000000E+00  0.00000000E+00
  0.00000000E+00  0.00000000E+00  0.00000000E+00
  0.00000000E+00  0.00000000E+00  0.00000000E+00
  0.00000000E+00  0.00000000E+00  0.00000000E+00
  0.00000000E+00  0.00000000E+00  0.00000000E+00
  0.00000000E+00  0.00000000E+00  0.00000000E+00
  0.00000000E+00  0.00000000E+00  0.00000000E+00
  0.00000000E+00  0.00000000E+00  0.00000000E+00
  0.00000000E+00  0.00000000E+00  0.00000000E+00
  0.00000000E+00  0.00000000E+00  0.00000000E+00
  0.00000000E+00  0.00000000E+00  0.00000000E+00
  0.00000000E+00  0.00000000E+00  0.00000000E+00
  0.00000000E+00  0.00000000E+00  0.00000000E+00
  0.00000000E+00  0.00000000E+00  0.00000000E+00
  0.00000000E+00  0.00000000E+00  0.00000000E+00
