Ca4 V4 Si6 O24                          
   1.00000000000000     
     7.5936650731761874   -0.1132762508477122    4.4197162357628672
     2.4871929698489281    7.1377112196543466    4.2589158970419962
     0.1237267491037426   -0.1148002941419760    8.7850871733859250
   Ca   V    Si   O 
     4     4     6    24
Direct
  0.4980013157929477  0.4978355290609429  0.4978282591524348
  0.9978687381558089  0.9977797605723850  0.9979713479190835
  0.4021531177834561  0.7475200997234310  0.0934195166505276
  0.5934643216753699  0.2474824835611358  0.9021680417828932
  0.6485279948671092  0.6412270407542309  0.6404467470575810
  0.1404688297903931  0.1412680963478437  0.1484437378026016
  0.8557823158002122  0.8534392400079298  0.8478461385192162
  0.3476218012111829  0.3535360224261339  0.3559261769987785
  0.9569510095958123  0.2473005864996125  0.5389176539484737
  0.4657371517456141  0.0444930009993669  0.7388565732386567
  0.5305639807410714  0.9507063124237547  0.2570775659925957
  0.7570230312308794  0.4506425381938541  0.0306036603262072
  0.2388716528245993  0.5445683209795931  0.9656703762043577
  0.0389393938118658  0.7473153432066368  0.4571057727599595
  0.4238474532470775  0.5544953658594736  0.7702255238465270
  0.9334257417155101  0.2710252782230924  0.0586966970578047
  0.7567579565918905  0.4086901457288405  0.5635153881212176
  0.0636699408272179  0.9085953901045016  0.2567489082170695
  0.5586482780873823  0.7711616659754483  0.4334530246051287
  0.2702169919559267  0.0545333016552831  0.9237445073040860
  0.7259605742541027  0.9405860943881308  0.0720760594861574
  0.2392612755297137  0.5861069282579336  0.4327701328739195
  0.0625692179765309  0.7241380996308564  0.9375990625563944
  0.4377001487830157  0.2241252483816609  0.5624497775871191
  0.9326297941590269  0.0862065151978015  0.7392590777613464
  0.5719753970550556  0.4406425597563555  0.2259850940259085
  0.0101387648986702  0.1811855739229458  0.3681030849559903
  0.5114304259479781  0.8384027527079567  0.7393288624750483
  0.3701496314817447  0.9601065729723359  0.2083257964003451
  0.7084143488036219  0.4600092170242931  0.8701273818761379
  0.2391630771545366  0.3385257147871883  0.0113386760009817
  0.8681337718917916  0.6812507211072756  0.5102396459302057
  0.1284914242196180  0.3130222415502359  0.4848124020005073
  0.6258887633716057  0.0350659368853314  0.7878219074893309
  0.4853331764255842  0.1569128083690217  0.2559753600565173
  0.7561460815355261  0.6567406365437378  0.9854145383942097
  0.2877631310683526  0.5351396682132972  0.1259005005787373
  0.9850099779922417  0.8130171880001811  0.6285070220459730
 
  0.00000000E+00  0.00000000E+00  0.00000000E+00
  0.00000000E+00  0.00000000E+00  0.00000000E+00
  0.00000000E+00  0.00000000E+00  0.00000000E+00
  0.00000000E+00  0.00000000E+00  0.00000000E+00
  0.00000000E+00  0.00000000E+00  0.00000000E+00
  0.00000000E+00  0.00000000E+00  0.00000000E+00
  0.00000000E+00  0.00000000E+00  0.00000000E+00
  0.00000000E+00  0.00000000E+00  0.00000000E+00
  0.00000000E+00  0.00000000E+00  0.00000000E+00
  0.00000000E+00  0.00000000E+00  0.00000000E+00
  0.00000000E+00  0.00000000E+00  0.00000000E+00
  0.00000000E+00  0.00000000E+00  0.00000000E+00
  0.00000000E+00  0.00000000E+00  0.00000000E+00
  0.00000000E+00  0.00000000E+00  0.00000000E+00
  0.00000000E+00  0.00000000E+00  0.00000000E+00
  0.00000000E+00  0.00000000E+00  0.00000000E+00
  0.00000000E+00  0.00000000E+00  0.00000000E+00
  0.00000000E+00  0.00000000E+00  0.00000000E+00
  0.00000000E+00  0.00000000E+00  0.00000000E+00
  0.00000000E+00  0.00000000E+00  0.00000000E+00
  0.00000000E+00  0.00000000E+00  0.00000000E+00
  0.00000000E+00  0.00000000E+00  0.00000000E+00
  0.00000000E+00  0.00000000E+00  0.00000000E+00
  0.00000000E+00  0.00000000E+00  0.00000000E+00
  0.00000000E+00  0.00000000E+00  0.00000000E+00
  0.00000000E+00  0.00000000E+00  0.00000000E+00
  0.00000000E+00  0.00000000E+00  0.00000000E+00
  0.00000000E+00  0.00000000E+00  0.00000000E+00
  0.00000000E+00  0.00000000E+00  0.00000000E+00
  0.00000000E+00  0.00000000E+00  0.00000000E+00
  0.00000000E+00  0.00000000E+00  0.00000000E+00
  0.00000000E+00  0.00000000E+00  0.00000000E+00
  0.00000000E+00  0.00000000E+00  0.00000000E+00
  0.00000000E+00  0.00000000E+00  0.00000000E+00
  0.00000000E+00  0.00000000E+00  0.00000000E+00
  0.00000000E+00  0.00000000E+00  0.00000000E+00
  0.00000000E+00  0.00000000E+00  0.00000000E+00
  0.00000000E+00  0.00000000E+00  0.00000000E+00
