Ti2 S2                                  
   1.00000000000000     
     3.2797822787497433   -0.0000646038782035    0.0000027557163362
    -1.6399468796826340    2.8406058913999019   -0.0000700861866963
    -0.0000037117855517   -0.0001088356169539    6.5229331519345894
   Ti   S 
     2     2
Direct
 -0.0000000195920969  0.9999995754948762  0.5000000012710162
  0.9999995108360378  0.9999996822055939  0.9999999968894565
  0.3333293263764582  0.6666505239518198  0.2500061511151611
  0.6666711823796008  0.3333502183477030  0.7499938507243662
 
  0.00000000E+00  0.00000000E+00  0.00000000E+00
  0.00000000E+00  0.00000000E+00  0.00000000E+00
  0.00000000E+00  0.00000000E+00  0.00000000E+00
  0.00000000E+00  0.00000000E+00  0.00000000E+00
