Ca4 Ni4 P6 O24                          
   1.00000000000000     
     2.5392199999999998    7.2234509999999998    4.3343010000000000
    -0.0193900000000000    0.0034730000000000    8.6948050000000006
     7.6254549999999997    0.0294010000000000    4.2889900000000001
   Ca   Ni   P    O 
     4     4     6    24
Direct
  0.2557449629559957  0.8533811447560704  0.5768879728252260
  0.9611528441297044  1.0011200146499146  0.0096045695636491
  0.3907956804254685  0.7346798166954768  0.1155837761612526
  0.1636721356420660  0.3831274448073320  0.7593095563381803
  0.6418465737123534  0.6170038615742108  0.6441799330888807
  0.1304978882577281  0.1352524612733490  0.1660958224564693
  0.8448019727122100  0.8572287620762741  0.8367546273053111
  0.3474981538966602  0.3344044615711778  0.3666303148321923
  0.2469172939347421  0.5411988820599297  0.9599727038051565
  0.0354264450747787  0.7590028652394099  0.4461571026537781
  0.9680687460325118  0.2544175639674602  0.5619063282919955
  0.4346787435811684  0.0234545823419362  0.7445025886472363
  0.5487426192888940  0.9419973688597446  0.2434442144600686
  0.7630900810325011  0.4656454649931026  0.0151298623801307
  0.5649046862905612  0.7797520977320666  0.4173666867873417
  0.2473098407741602  0.0607942638788887  0.9079337407101976
  0.4038119971068226  0.5426759050265901  0.7665476486547518
  0.9015490735643696  0.2637008141492006  0.0442717139485691
  0.7967117889191059  0.4132355732352134  0.5303803593890154
  0.0668012484231783  0.8833919982138352  0.2494809591138805
  0.9153835373156167  0.0936126080335823  0.7427136232896261
  0.6339389533111854  0.5041604143866684  0.1950960032217499
  0.7363508979804594  0.8957896194075105  0.0816937961669589
  0.2238789663925644  0.5960857303570146  0.4506187005213144
  0.1032480088081043  0.7414209325011870  0.9063443410923395
  0.4518175352448255  0.1929115541780680  0.6003880370632344
  0.1836337955645151  0.3875011070290754  0.0144955216941364
  0.8735432149138107  0.6892543761172567  0.5157422372434065
  0.0885718009122621  0.1698598178790852  0.4053447643258826
  0.4292245492647239  0.8758853571378314  0.7007524141418787
  0.3899153772143126  0.9432727158485963  0.2115287560582816
  0.6523248916778318  0.5064017072342174  0.9050061106057270
  0.2885794442368509  0.5351077569184782  0.1114437977363242
  0.0014993668409878  0.8540382066347896  0.5704866730274438
  0.0944612261648909  0.3027271021789804  0.5935828424607720
  0.5893197187190773  0.9164667955867805  0.8414609606202947
  0.5188637700493245  0.1208998882285556  0.2471397754941969
  0.8920652559162318  0.5861406742266492  0.8931297851234056
 
             NaN             NaN             NaN
             NaN             NaN             NaN
             NaN             NaN             NaN
             NaN             NaN             NaN
             NaN             NaN             NaN
             NaN             NaN             NaN
             NaN             NaN             NaN
             NaN             NaN             NaN
             NaN             NaN             NaN
             NaN             NaN             NaN
             NaN             NaN             NaN
             NaN             NaN             NaN
             NaN             NaN             NaN
             NaN             NaN             NaN
             NaN             NaN             NaN
             NaN             NaN             NaN
             NaN             NaN             NaN
             NaN             NaN             NaN
             NaN             NaN             NaN
             NaN             NaN             NaN
             NaN             NaN             NaN
             NaN             NaN             NaN
             NaN             NaN             NaN
             NaN             NaN             NaN
             NaN             NaN             NaN
             NaN             NaN             NaN
             NaN             NaN             NaN
             NaN             NaN             NaN
             NaN             NaN             NaN
             NaN             NaN             NaN
             NaN             NaN             NaN
             NaN             NaN             NaN
             NaN             NaN             NaN
             NaN             NaN             NaN
             NaN             NaN             NaN
             NaN             NaN             NaN
             NaN             NaN             NaN
             NaN             NaN             NaN
