Mn8 Si4 O16                             
   1.00000000000000     
     4.9043798563227838   -0.0000016813317682   -0.0000002141780793
    -0.0000036325747008   10.5961242205509336   -0.0000009098029598
    -0.0000002806577137   -0.0000005394843178    6.2652430012781268
   Mn   Si   O 
     8     4    16
Direct
  0.5000000796565800  0.4999999116793035  0.0000001036826234
  0.0000000017794832  0.0000000007563372  0.5000000510636582
  0.5000000711353749  0.4999999097334822  0.4999998756159556
  0.0000000094530890  0.0000000027627962  0.9999999143720260
  0.5141023639800721  0.7793102522468232  0.2499998807290993
  0.9858973760337832  0.2793102581673281  0.2499999815986698
  0.4858973158145901  0.2206895653325844  0.7500000986754713
  0.0141023738796662  0.7206896615009484  0.7499999872841272
  0.0732041863594191  0.5964126328777226  0.2500000282142381
  0.4267965417624495  0.0964124999110751  0.2499999975036147
  0.9267965418787156  0.4035874104794388  0.7499999623547069
  0.5732032613389535  0.9035873278470845  0.7499999702014577
  0.7425715132356245  0.5935621024289688  0.2500003469360621
  0.7574297819958105  0.0935606706995884  0.2499999775088710
  0.2574297815134159  0.4064392299934099  0.7499999963033730
  0.2425699355137922  0.9064392259199110  0.7499999933284229
  0.2896183639144994  0.9533495887627339  0.2499999486314906
  0.2103814598087723  0.4533495365073534  0.2499999937745656
  0.7103814206311938  0.0466503784991019  0.7500000219042207
  0.7896183714644565  0.5466502652949501  0.7499999799324684
  0.2138449334606420  0.6639212093370404  0.0416344843700358
  0.2861549766825675  0.1639212186896870  0.4583655416551906
  0.7861549338302396  0.3360786908779758  0.5416343740513199
  0.7138447693723222  0.8360786745236481  0.9583654305950802
  0.7861549475136371  0.3360786859920353  0.9583655215526363
  0.7138447571096123  0.8360786708623422  0.5416345129726210
  0.2138449658958805  0.6639212063292064  0.4583655643102631
  0.2861549649853643  0.1639212119871232  0.0416344608777450
 
  0.00000000E+00  0.00000000E+00  0.00000000E+00
  0.00000000E+00  0.00000000E+00  0.00000000E+00
  0.00000000E+00  0.00000000E+00  0.00000000E+00
  0.00000000E+00  0.00000000E+00  0.00000000E+00
  0.00000000E+00  0.00000000E+00  0.00000000E+00
  0.00000000E+00  0.00000000E+00  0.00000000E+00
  0.00000000E+00  0.00000000E+00  0.00000000E+00
  0.00000000E+00  0.00000000E+00  0.00000000E+00
  0.00000000E+00  0.00000000E+00  0.00000000E+00
  0.00000000E+00  0.00000000E+00  0.00000000E+00
  0.00000000E+00  0.00000000E+00  0.00000000E+00
  0.00000000E+00  0.00000000E+00  0.00000000E+00
  0.00000000E+00  0.00000000E+00  0.00000000E+00
  0.00000000E+00  0.00000000E+00  0.00000000E+00
  0.00000000E+00  0.00000000E+00  0.00000000E+00
  0.00000000E+00  0.00000000E+00  0.00000000E+00
  0.00000000E+00  0.00000000E+00  0.00000000E+00
  0.00000000E+00  0.00000000E+00  0.00000000E+00
  0.00000000E+00  0.00000000E+00  0.00000000E+00
  0.00000000E+00  0.00000000E+00  0.00000000E+00
  0.00000000E+00  0.00000000E+00  0.00000000E+00
  0.00000000E+00  0.00000000E+00  0.00000000E+00
  0.00000000E+00  0.00000000E+00  0.00000000E+00
  0.00000000E+00  0.00000000E+00  0.00000000E+00
  0.00000000E+00  0.00000000E+00  0.00000000E+00
  0.00000000E+00  0.00000000E+00  0.00000000E+00
  0.00000000E+00  0.00000000E+00  0.00000000E+00
  0.00000000E+00  0.00000000E+00  0.00000000E+00
