Ca1 Ni4 S6 O24
1.0
7.455903 0.286821 4.388679
2.804458 6.802705 4.727553
0.648903 0.291472 8.792946
Ca Ni S O
1 4 6 24
direct
0.465369 0.546217 0.510221 Ca
0.644879 0.644819 0.644017 Ni
0.146265 0.150068 0.154340 Ni
0.847218 0.843636 0.840585 Ni
0.352462 0.350459 0.350942 Ni
0.948278 0.244415 0.543283 S
0.457447 0.035125 0.753685 S
0.537785 0.960733 0.239743 S
0.754665 0.453328 0.040922 S
0.240025 0.539926 0.955775 S
0.046557 0.751286 0.450114 S
0.372357 0.621236 0.750344 O
0.962826 0.315910 0.013909 O
0.749946 0.375738 0.629204 O
0.017307 0.960393 0.311139 O
0.619684 0.752111 0.376880 O
0.331187 1.008404 0.957765 O
0.662252 0.987907 0.034893 O
0.243030 0.618711 0.366254 O
0.030615 0.676872 0.982321 O
0.377440 0.244036 0.617201 O
0.981056 0.032290 0.681930 O
0.621639 0.375025 0.245432 O
0.949403 0.282135 0.356810 O
0.476193 0.893236 0.703824 O
0.335084 0.969988 0.289127 O
0.703105 0.477352 0.897313 O
0.274016 0.344184 0.973912 O
0.890934 0.711758 0.480383 O
0.103349 0.284879 0.514613 O
0.658714 0.021332 0.709088 O
0.517435 0.104279 0.287867 O
0.723500 0.647820 0.021510 O
0.290085 0.517082 0.099614 O
0.047428 0.713432 0.636160 O
