Ca4 Mn4 P6 O24                          
   1.00000000000000     
     2.6505250000000000    7.6911370000000003    4.4254429999999996
    -0.0030290000000000    0.2196050000000000    8.6314419999999998
     7.6089110000000000    0.2518040000000000    4.1965339999999998
   Ca   Mn   P    O 
     4     4     6    24
Direct
  0.3746873361294548  0.6549800065573103  0.5102222691256043
  0.9234360707125128  0.9984225287519929  0.0495751360662872
  0.3790895937902651  0.7359628728949168  0.0802942127896467
  0.1210786005111849  0.3761049439974851  0.7693905057826405
  0.6433980522163678  0.6482958931096747  0.6469455291593910
  0.1622802740966170  0.1400763917812130  0.1698989137660736
  0.8557202442068281  0.8640696155250285  0.8244626533772540
  0.3311856768511444  0.3093586858399445  0.3683076412716612
  0.2439815271584430  0.5494438278590817  0.9580051758166900
  0.0342197575613993  0.7637690572009329  0.4471204219712414
  0.9437356702471015  0.2513087661414079  0.5782310729373278
  0.4569011934991427  0.0426539677660980  0.7393830586925689
  0.5603387252304191  0.9246870963144064  0.2386582838222065
  0.7478216982382800  0.4889899170399467  0.0225050695504524
  0.5863603602205273  0.7636507247381377  0.4171010293130692
  0.2777267020406753  0.0647066247410613  0.9122685070571002
  0.4103568018932433  0.5522683246701909  0.7798139145713024
  0.8830434269819253  0.2891379689758372  1.0367606694415457
  0.7787791063957219  0.4266719654871832  0.5836377904261758
  0.0760492439914736  0.9051903558608548  0.2484836032016216
  0.8911884820134534  0.0906309081061968  0.7602607337447119
  0.6080615727534007  0.5285624057991509  0.2034381499288833
  0.7337260170266874  0.8756224783000525  0.0777525891739730
  0.2074577696048230  0.5865021287096587  0.4401506084463824
  0.1006957596189212  0.7437739488857102  0.9287153861358323
  0.4236342461447556  0.2296311835744129  0.5840278936824905
  0.1877997828555940  0.3950470602060196  0.9858948556485972
  0.8708177223087468  0.7266532842891710  0.5038426516726205
  1.0107765135725268  0.2042682159237220  0.4036989335515260
  0.4719841045970487  0.8753141999333072  0.7038763704939101
  0.3989865294413675  0.9218721298456920  0.2286966605114457
  0.6434523374024939  0.5409031908127125  0.9012260291072953
  0.2841093686510615  0.5086004009665581  0.1279067238199615
  0.0316319823335046  0.8283176370624212  0.5870451197178109
  0.0924322284617496  0.2741898852453827  0.5900300233006379
  0.6101039282588435  0.9880037790743070  0.7938339011113621
  0.5333138285666988  0.1100757471508412  0.2439720850620068
  0.8695505481062890  0.6118288559193562  0.9049173054979592
 
             NaN             NaN             NaN
             NaN             NaN             NaN
             NaN             NaN             NaN
             NaN             NaN             NaN
             NaN             NaN             NaN
             NaN             NaN             NaN
             NaN             NaN             NaN
             NaN             NaN             NaN
             NaN             NaN             NaN
             NaN             NaN             NaN
             NaN             NaN             NaN
             NaN             NaN             NaN
             NaN             NaN             NaN
             NaN             NaN             NaN
             NaN             NaN             NaN
             NaN             NaN             NaN
             NaN             NaN             NaN
             NaN             NaN             NaN
             NaN             NaN             NaN
             NaN             NaN             NaN
             NaN             NaN             NaN
             NaN             NaN             NaN
             NaN             NaN             NaN
             NaN             NaN             NaN
             NaN             NaN             NaN
             NaN             NaN             NaN
             NaN             NaN             NaN
             NaN             NaN             NaN
             NaN             NaN             NaN
             NaN             NaN             NaN
             NaN             NaN             NaN
             NaN             NaN             NaN
             NaN             NaN             NaN
             NaN             NaN             NaN
             NaN             NaN             NaN
             NaN             NaN             NaN
             NaN             NaN             NaN
             NaN             NaN             NaN
