Ca4 Mn4 P6 O24
1.0
2.650525 7.691137 4.425443
-0.003029 0.219605 8.631442
7.608911 0.251804 4.196534
Ca Mn P O
4 4 6 24
direct
0.420299 0.646269 0.561975 Ca
0.903141 0.985897 0.081818 Ca
0.372651 0.741694 0.107445 Ca
0.137409 0.389681 0.756747 Ca
0.636357 0.656561 0.636476 Mn
0.156419 0.144911 0.180313 Mn
0.849904 0.858154 0.831441 Mn
0.362989 0.318765 0.348558 Mn
0.246480 0.549681 0.954735 P
0.029727 0.769137 0.443156 P
0.947611 0.244508 0.590328 P
0.458790 0.047438 0.730906 P
0.554950 0.910183 0.248163 P
0.747910 0.483274 0.003759 P
0.577255 0.739704 0.421671 O
0.287384 0.065586 0.906094 O
0.394402 0.560415 0.762461 O
0.882741 0.289554 0.996447 O
0.782658 0.417529 0.605013 O
0.073813 0.921036 0.250051 O
0.900893 0.078165 0.769716 O
0.612673 0.489759 0.197607 O
0.725270 0.864334 0.082493 O
0.197517 0.592353 0.432523 O
0.096785 0.742489 0.943002 O
0.430469 0.237894 0.578169 O
0.180539 0.394984 -0.000086 O
0.863947 0.748133 0.475297 O
0.995242 0.199853 0.420871 O
0.471549 0.896573 0.673921 O
0.390064 0.933691 0.227908 O
0.633691 0.571772 0.882154 O
0.308438 0.505141 0.110357 O
0.013447 0.825307 0.596727 O
0.105953 0.261042 0.586750 O
0.615508 -0.004784 0.775493 O
0.545347 0.084861 0.261745 O
0.865345 0.604871 0.913017 O
