Ca2 Ni4 S6 O24                          
   1.00000000000000     
     7.5255130000000001    0.1403140000000000    4.4484120000000003
     2.6027279999999999    7.0503140000000002    4.4366209999999997
     0.1483410000000000    0.1353840000000000    8.7428600000000003
   Ca   Ni   S    O 
     2     4     6    24
Direct
  0.4037894164588363  0.6230717997027803  0.5046587388846243
  0.9863212691622181  0.0337815855082335 -0.0232698537110016
  0.6515479528908403  0.6354986458328454  0.6667577206380478
  0.1509141608384552  0.1443272899664324  0.1454515259745468
  0.8450751346304705  0.8584971910950412  0.8434550876387570
  0.3459071848838586  0.3533812482915182  0.3493373391740019
  0.9488879903202950  0.2555894999825035  0.5415561540988610
  0.4522163923868848  0.0376443708739926  0.7549647284002031
  0.5431340167710238  0.9636177224603675  0.2444115279934418
  0.7479308014470788  0.4495927159216476  0.0470708453298941
  0.2405671872047394  0.5519246300822263  0.9600991622409046
  0.0371968415867933  0.7536251132923120  0.4461447167397924
  0.4264756863032467  0.5390146008520772  0.7959247314901907
  0.8878600535367424  0.2586523702974500  0.1179559066831974
  0.7830481950359661  0.4377349887849785  0.5283252573469794
  0.0872773229880066  0.8948321861384158  0.2519677280888212
  0.5366610105962165  0.8277869219794088  0.4414501211198645
  0.2539524537059651  0.1093369133916806  0.8877732753597867
  0.7358442771969192  0.8978609546372999  0.1079954706033422
  0.2045294542797147  0.5699878663948481  0.4566303205719821
  0.1022531958750968  0.7455924270422557  0.8890020548446352
  0.4672700015724636  0.1771251517907878  0.5607114112749420
  0.8910723761968693  0.1102658550418590  0.7339677951145457
  0.5617810590037303  0.4740884564446489  0.2035848267690219
  1.0037956705846189  0.1880554666825290  0.3945828747774248
  0.4769462457351995  0.8487847532702629  0.7752583090615505
  0.3967328605058284  0.9507069788609761  0.2172742840817763
  0.7416412750658049  0.4372408471794855  0.8878300591705023
  0.1855857777847595  0.4010101353846628  0.9997911366797113
  0.8687820058156330  0.7305293907131896  0.4820398189867037
  0.1094389179576052  0.2746400472902132  0.5356121262193141
  0.5896349888684116  1.0238359484777479  0.8124644226287957
  0.5047283799638852  0.1570793523134488  0.2197850721755375
  0.8112665663085840  0.6033419451656367 -0.0167546651419480
  0.2522024407920932  0.5441276573608768  0.1238147861695277
  0.0182806684801804  0.8131182724423901  0.5862296418821279
 
             NaN             NaN             NaN
             NaN             NaN             NaN
             NaN             NaN             NaN
             NaN             NaN             NaN
             NaN             NaN             NaN
             NaN             NaN             NaN
             NaN             NaN             NaN
             NaN             NaN             NaN
             NaN             NaN             NaN
             NaN             NaN             NaN
             NaN             NaN             NaN
             NaN             NaN             NaN
             NaN             NaN             NaN
             NaN             NaN             NaN
             NaN             NaN             NaN
             NaN             NaN             NaN
             NaN             NaN             NaN
             NaN             NaN             NaN
             NaN             NaN             NaN
             NaN             NaN             NaN
             NaN             NaN             NaN
             NaN             NaN             NaN
             NaN             NaN             NaN
             NaN             NaN             NaN
             NaN             NaN             NaN
             NaN             NaN             NaN
             NaN             NaN             NaN
             NaN             NaN             NaN
             NaN             NaN             NaN
             NaN             NaN             NaN
             NaN             NaN             NaN
             NaN             NaN             NaN
             NaN             NaN             NaN
             NaN             NaN             NaN
             NaN             NaN             NaN
             NaN             NaN             NaN
