Ca2 Ni4 S6 O24
1.0
7.525513 0.140314 4.448412
2.602728 7.050314 4.436621
0.148341 0.135384 8.742860
Ca Ni S O
2 4 6 24
direct
0.406354 0.636095 0.531055 Ca
0.983952 1.004292 1.005851 Ca
0.648314 0.646120 0.647864 Ni
0.142151 0.148250 0.144117 Ni
0.844989 0.848037 0.847558 Ni
0.355723 0.348641 0.349263 Ni
0.959177 0.248717 0.538485 S
0.444238 0.041265 0.749246 S
0.548721 0.956605 0.242328 S
0.745072 0.453285 0.045771 S
0.249313 0.541011 0.953951 S
0.039540 0.748380 0.453203 S
0.413812 0.560779 0.772303 O
0.897498 0.263020 0.085007 O
0.796315 0.422577 0.549785 O
0.079999 0.899736 0.265481 O
0.567305 0.777998 0.409914 O
0.256308 0.078847 0.902948 O
0.727276 0.923998 0.081208 O
0.201405 0.572497 0.447392 O
0.088670 0.729947 0.924197 O
0.442343 0.215336 0.580493 O
0.925092 0.091402 0.725955 O
0.574094 0.450853 0.217184 O
0.981285 0.199808 0.391573 O
0.463939 0.887242 0.709615 O
0.385680 0.992822 0.207791 O
0.711661 0.476127 0.887537 O
0.199674 0.390761 0.984481 O
0.870627 0.732571 0.484720 O
0.129143 0.264366 0.507933 O
0.593292 -0.006936 0.810604 O
0.531892 0.112427 0.273967 O
0.805857 0.598648 0.007893 O
0.289355 0.512250 0.109771 O
0.018620 0.796854 0.601541 O
