Ca2 Cr4 S6 O24
1.0
7.417361 -0.115696 4.584568
2.330920 7.050529 4.554919
-0.080237 -0.130272 9.440004
Ca Cr S O
2 4 6 24
direct
0.258566 0.888471 0.590759 Ca
1.000327 0.987289 1.021012 Ca
0.654452 0.624789 0.663485 Cr
0.135825 0.158889 0.150190 Cr
0.838673 0.842636 0.853938 Cr
0.347383 0.355844 0.363004 Cr
0.955742 0.245681 0.569331 S
0.458939 0.027330 0.733276 S
0.521908 0.973296 0.231720 S
0.750335 0.432625 0.044874 S
0.239403 0.564762 0.950404 S
0.057703 0.752285 0.443861 S
0.399837 0.571661 0.779124 O
0.903379 0.253541 0.091234 O
0.785738 0.404153 0.577137 O
0.068624 0.913005 0.272209 O
0.514962 0.789573 0.368345 O
0.275368 0.056051 0.877490 O
0.715100 0.967417 0.109929 O
0.225612 0.595210 0.413405 O
0.085384 0.749272 0.902175 O
0.471589 0.195346 0.581784 O
0.924684 0.080440 0.739096 O
0.580958 0.433630 0.201051 O
1.020398 0.184333 0.424731 O
0.471264 0.878640 0.685393 O
0.406454 0.034493 0.131247 O
0.727850 0.432770 0.902298 O
0.175749 0.411166 1.007781 O
0.885083 0.713455 0.502971 O
0.112034 0.279188 0.559986 O
0.611402 0.950812 0.796543 O
0.441668 0.105448 0.326226 O
0.811706 0.588547 -0.007906 O
0.274746 0.570479 0.080305 O
0.051596 0.805362 0.571957 O
