Ca2 Co4 S6 O24                          
   1.00000000000000     
     7.7022800000000000    0.0585910000000000    4.4274120000000003
     2.7568570000000001    6.9676229999999997    4.5928680000000002
     0.3219610000000000   -0.0405300000000000    8.8653969999999997
   Ca   Co   S    O 
     2     4     6    24
Direct
  0.2529334938921609  0.8551890456008546  0.5853024244137641
  0.9596883943855783  0.0220960998938136  0.0110620021955071
  0.6571860960107591  0.6323051132632765  0.6589456219956484
  0.1451445645830225  0.1469303297192348  0.1388601614319780
  0.8326547740297883  0.8503165749947076  0.8431276474350420
  0.3724045972172272  0.3502868215569864  0.3460471393221197
  0.9713176310455980  0.2413605683498674  0.5353206927574771
  0.4303692218321821  0.0379542898982411  0.7513141969166868
  0.5587880861541425  0.9571589734400565  0.2383962867082998
  0.7499378604139713  0.4462499647100129  0.0419328687303447
  0.2509264592125209  0.5407680289994459  0.9604943924987674
  0.0423529866844292  0.7464765970304361  0.4473090673867520
  0.4174540246246670  0.5536286206005491  0.7826611724028492
  0.8809588799834884  0.2520381231593443  0.1206925153073816
  0.8205948933722702  0.4233704084627114  0.5366936795718898
  0.0924228962632461  0.8895638487506641  0.2554260406806683
  0.5700620163106503  0.7942308377839012  0.4161368323931067
  0.2356076352153985  0.1018251464239630  0.8885992168446641
  0.7303660966933730  0.9032394112711626  0.0817562628166766
  0.1972713479650301  0.5634053807911581  0.4633632737919621
  0.0960772119596094  0.7340395236244376  0.9132726595321282
  0.4592637095331348  0.1954074148106442  0.5733902084613310
  0.9279069782752095  0.0842770551492165  0.7250483322063037
  0.5654150429255406  0.4862295586073145  0.1880861311654748
  0.9981334581697093  0.1818171809489301  0.3951914179508799
  0.4386162930665760  0.8785562235011912  0.7260146150219882
  0.3830347516276700  0.9946268529936152  0.2257510738775204
  0.7430848242216885  0.4340660573561406  0.8848306280602353
  0.1985810002707935  0.3905864067938267 -0.0000964706029004
  0.8662167967754636  0.7402327231404976  0.4816787678241617
  0.1555263978943226  0.2295328848161243  0.5094198627619048
  0.5687718453009738  0.9692950501723064  0.8344921295936146
  0.5590412332185071  0.1243989817182698  0.2371083203662285
  0.8310386242039601  0.5869351158736168  0.9723735369919858
  0.2796968224484025  0.5227335850819760  0.1159801444081680
  0.0117012052127859  0.8139885352397411  0.5877504328195673
 
             NaN             NaN             NaN
             NaN             NaN             NaN
             NaN             NaN             NaN
             NaN             NaN             NaN
             NaN             NaN             NaN
             NaN             NaN             NaN
             NaN             NaN             NaN
             NaN             NaN             NaN
             NaN             NaN             NaN
             NaN             NaN             NaN
             NaN             NaN             NaN
             NaN             NaN             NaN
             NaN             NaN             NaN
             NaN             NaN             NaN
             NaN             NaN             NaN
             NaN             NaN             NaN
             NaN             NaN             NaN
             NaN             NaN             NaN
             NaN             NaN             NaN
             NaN             NaN             NaN
             NaN             NaN             NaN
             NaN             NaN             NaN
             NaN             NaN             NaN
             NaN             NaN             NaN
             NaN             NaN             NaN
             NaN             NaN             NaN
             NaN             NaN             NaN
             NaN             NaN             NaN
             NaN             NaN             NaN
             NaN             NaN             NaN
             NaN             NaN             NaN
             NaN             NaN             NaN
             NaN             NaN             NaN
             NaN             NaN             NaN
             NaN             NaN             NaN
             NaN             NaN             NaN
