Ca2 Co4 S6 O24                          
   1.00000000000000     
     7.7022800000000000    0.0585910000000000    4.4274120000000003
     2.7568570000000001    6.9676229999999997    4.5928680000000002
     0.3219610000000000   -0.0405300000000000    8.8653969999999997
   Ca   Co   S    O 
     2     4     6    24
Direct
  0.2504475506297303  0.8527811662379396  0.5836481210095135
  0.9612904996980781  0.0196106058591220  0.0124118205809287
  0.6570436173087403  0.6299676149804100  0.6557968276685631
  0.1458033985998383  0.1467730657730437  0.1379436250021692
  0.8297748825535937  0.8516524410702462  0.8454316630672950
  0.3692663782074745  0.3511608892231728  0.3486527741429937
  0.9703677781169070  0.2390582727028293  0.5358281262679172
  0.4327434513939584  0.0389607426520747  0.7495896782741790
  0.5587652831077010  0.9560006764363816  0.2418718629889298
  0.7502770392586484  0.4470703713091873  0.0407620656602470
  0.2516776443364089  0.5402865067223764  0.9598154064645511
  0.0433856216219784  0.7461776457281007  0.4456986274571083
  0.4164526172725029  0.5535038404483877  0.7800862520641051
  0.8832723520853621  0.2529392588119796  0.1167907673723445
  0.8155062189707067  0.4195603281940073  0.5385042679057703
  0.0932898380062553  0.8908458636601397  0.2545619971849419
  0.5688642408392872  0.7874795579538789  0.4165703028933868
  0.2367232356299482  0.0996187081214505  0.8869457538645921
  0.7298139748371593  0.9053702763992623  0.0833355889933893
  0.2034526624379968  0.5664603480501920  0.4601121654891842
  0.0966827914210979  0.7340029796811588  0.9142973788779882
  0.4609829229553312  0.1980258920888912  0.5729804898803232
  0.9289013278103679  0.0821134179844154  0.7257977556830045
  0.5663966456442158  0.4843571977862942  0.1879430059561812
  0.9992545858556313  0.1771237047152596  0.3967716229800876
  0.4471528553591163  0.8781110051244252  0.7210311680899233
  0.3827163231116151  0.9993814667706218  0.2258834369314586
  0.7413360952285959  0.4377109484811323  0.8831109701525039
  0.1971829675455719  0.3912348259348196  1.0004359730824264
  0.8724996932663697  0.7334746932859704  0.4754745310425063
  0.1529959599989127  0.2314507873088050  0.5085989898812727
  0.5670006699942071  0.9725784560535305  0.8371208536944337
  0.5611771066307371  0.1170710805634667  0.2494153660749805
  0.8302234151406711  0.5880844772294913  0.9730508386640254
  0.2843146410920405  0.5205720749066285  0.1136826991715975
  0.0063868472854725  0.8136477029717912  0.5889014832632479
 
             NaN             NaN             NaN
             NaN             NaN             NaN
             NaN             NaN             NaN
             NaN             NaN             NaN
             NaN             NaN             NaN
             NaN             NaN             NaN
             NaN             NaN             NaN
             NaN             NaN             NaN
             NaN             NaN             NaN
             NaN             NaN             NaN
             NaN             NaN             NaN
             NaN             NaN             NaN
             NaN             NaN             NaN
             NaN             NaN             NaN
             NaN             NaN             NaN
             NaN             NaN             NaN
             NaN             NaN             NaN
             NaN             NaN             NaN
             NaN             NaN             NaN
             NaN             NaN             NaN
             NaN             NaN             NaN
             NaN             NaN             NaN
             NaN             NaN             NaN
             NaN             NaN             NaN
             NaN             NaN             NaN
             NaN             NaN             NaN
             NaN             NaN             NaN
             NaN             NaN             NaN
             NaN             NaN             NaN
             NaN             NaN             NaN
             NaN             NaN             NaN
             NaN             NaN             NaN
             NaN             NaN             NaN
             NaN             NaN             NaN
             NaN             NaN             NaN
             NaN             NaN             NaN
