Ca4 V4 P6 O24                           
   1.00000000000000     
     2.5655090000000000    7.2600860000000003    4.3598319999999999
    -0.0051910000000000    0.0430770000000000    8.7823519999999995
     7.6655810000000004    0.0448240000000000    4.2829730000000001
   Ca   V    P    O 
     4     4     6    24
Direct
  0.3434303615637489  0.6897259432643639  0.5346156286291212
  0.9667398175488663  0.0048871205188983  0.0115293596896562
  0.4026270476214634  0.7452960688022338  0.0822272736838875
  0.1067357415321695  0.3872633746527472  0.7523070719792444
  0.6592460691344403  0.6261949244782905  0.6429273157027036
  0.1512059223047043  0.1427646997055312  0.1527645338522098
  0.8467124365429327  0.8646285639293159  0.8478433874255524
  0.3479531956288891  0.3473125164627394  0.3555841102268865
  0.2425107499230157  0.5517448000562404  0.9571896693655997
  0.0366850098402765  0.7527881303650359  0.4453702069004222
  0.9555552628001800  0.2503924892991004  0.5522156503243817
  0.4567469089360257  0.0420295186446535  0.7444138864458796
  0.5426858952734354  0.9496104750679324  0.2469226499877190
  0.7531646024444307  0.4501427915608247  0.0422448033415011
  0.5739077096870762  0.7849517682836952  0.4202164670156630
  0.2605882008588856  0.0694195539017085  0.9073982872116947
  0.4197649960503730  0.5598804115011035  0.7863214236456646
  0.9191737549501183  0.2726128846402380  0.0721940232842598
  0.7751712084486330  0.4144136881936843  0.5583899965479577
  0.0778294855381995  0.9036775467957932  0.2549780997509571
  0.9264544442061161  0.0903953948710643  0.7368926214155621
  0.5743210781649947  0.4365350648479164  0.2027872059222812
  0.7228587255295338  0.9340447625307828  0.0854653144155481
  0.2282508307971603  0.5880314634080273  0.4280873874551317
  0.0894990424342035  0.7387583208395199  0.9134262611298274
  0.4245962289147583  0.2192788697011815  0.5861960438167568
  0.1959554082487830  0.3950397346474693  0.9765197347161362
  0.8840473199342800  0.7031089942399115  0.4809087759432447
  0.0235714429072293  0.1876412655785724  0.3913313487499864
  0.4922916626891945  0.8592883161441404  0.7297128979685080
  0.3928565708480479  0.9254374104149322  0.2217255314340236
  0.7538506801700915  0.4662826100585238  0.8592707442778587
  0.2706337257199340  0.5336549869050676  0.1232589280887328
  0.0192384915945326  0.7889618904280657  0.6077482536254046
  0.1041977232433927  0.3038979691627371  0.5426263733551931
  0.6004001529330353  1.0129894831941031  0.8099146825132880
  0.4699230315435362  0.1302987737776410  0.2755899380428357
  0.7728396148771099  0.6271700522372313  0.0105991296178635
 
             NaN             NaN             NaN
             NaN             NaN             NaN
             NaN             NaN             NaN
             NaN             NaN             NaN
             NaN             NaN             NaN
             NaN             NaN             NaN
             NaN             NaN             NaN
             NaN             NaN             NaN
             NaN             NaN             NaN
             NaN             NaN             NaN
             NaN             NaN             NaN
             NaN             NaN             NaN
             NaN             NaN             NaN
             NaN             NaN             NaN
             NaN             NaN             NaN
             NaN             NaN             NaN
             NaN             NaN             NaN
             NaN             NaN             NaN
             NaN             NaN             NaN
             NaN             NaN             NaN
             NaN             NaN             NaN
             NaN             NaN             NaN
             NaN             NaN             NaN
             NaN             NaN             NaN
             NaN             NaN             NaN
             NaN             NaN             NaN
             NaN             NaN             NaN
             NaN             NaN             NaN
             NaN             NaN             NaN
             NaN             NaN             NaN
             NaN             NaN             NaN
             NaN             NaN             NaN
             NaN             NaN             NaN
             NaN             NaN             NaN
             NaN             NaN             NaN
             NaN             NaN             NaN
             NaN             NaN             NaN
             NaN             NaN             NaN
