Ca1 V4 P6 O24
1.0
2.619089 6.938671 4.523104
0.290747 0.186156 8.716909
7.415708 0.178557 4.549020
Ca V P O
1 4 6 24
direct
0.506839 0.507461 0.478043 Ca
0.643791 0.645804 0.642178 V
0.138744 0.140151 0.145661 V
0.852070 0.850159 0.857710 V
0.348622 0.350320 0.353539 V
0.250727 0.525669 0.959716 P
0.035419 0.744454 0.468860 P
0.959494 0.248445 0.530330 P
0.463653 0.032259 0.747852 P
0.529907 0.962561 0.246123 P
0.746183 0.466531 0.035970 P
0.602991 0.759118 0.397536 O
0.308602 0.021153 0.949071 O
0.398470 0.591572 0.755324 O
0.949765 0.312100 0.015534 O
0.757868 0.398120 0.600649 O
0.023804 0.952853 0.313731 O
0.977399 0.044184 0.682002 O
0.596039 0.391271 0.235253 O
0.685941 0.979851 0.042908 O
0.238739 0.599894 0.394384 O
0.044913 0.681499 0.970335 O
0.405711 0.238494 0.594811 O
0.261148 0.330611 0.989098 O
0.877396 0.699778 0.489620 O
0.974080 0.272459 0.335579 O
0.488690 0.881199 0.690433 O
0.340094 -0.028757 0.266716 O
0.691048 0.508677 0.872176 O
0.299841 0.503474 0.115494 O
0.015366 0.723674 0.662989 O
0.118833 0.303797 0.498996 O
0.661278 0.999610 0.739226 O
0.494951 0.119940 0.301105 O
0.723984 0.654015 0.033449 O
