Ca4 V4 P6 O24                           
   1.00000000000000     
     2.6043859999999999    7.2699579999999999    4.4011440000000004
    -0.0101560000000000    0.0462270000000000    8.7994500000000002
     7.6782100000000000    0.0279320000000000    4.2989949999999997
   Ca   V    P    O 
     4     4     6    24
Direct
  0.4669799878431967  0.5770542115791918  0.4824480085311878
  0.9449772569713488  0.0096666226917779  0.0228664032891764
  0.3758580563097538  0.7494339327630872  0.0848830296474126
  0.1115014854726763  0.3927453674650992  0.7545802871980853
  0.6442459638804494  0.6373539479202739  0.6531125539485167
  0.1453709410449945  0.1412692322996577  0.1584703168761031
  0.8567304738065996  0.8647703615318477  0.8394968888293363
  0.3475225132191913  0.3484358950538957  0.3510524105497144
  0.2388035762486400  0.5574059141422685  0.9477522969896124
  0.0381935681275382  0.7567493411035853  0.4567926417507608
  0.9462823358259472  0.2561193042643648  0.5594311795501610
  0.4591021776863006  0.0421206371535753  0.7478685916465704
  0.5425903803270123  0.9444154809115018  0.2467866560569285
  0.7489112814496628  0.4606748382460680  0.0355283994408602
  0.5710160220810763  0.7911602238015855  0.4272518894210658
  0.2664523141595967  0.0715886928855573  0.9095049050672536
  0.4051723088185095  0.5737322977097319  0.7669727294170772
  0.9069343541488746  0.2738791795191709  0.0595753438812513
  0.7638709019529472  0.4249380773068744  0.5630628601760100
  0.0627734342472288  0.9002126773992156  0.2612070676441412
  0.9038173661925248  0.1015935524043753  0.7469705101052773
  0.5843868696076525  0.4758306541937904  0.2159829239886215
  0.7280113578980126  0.9017125612518875  0.0913830975166506
  0.2259076761947887  0.5896689874145181  0.4334381122529853
  0.0782679832860382  0.7440513102787081  0.9219046253492438
  0.4321994536112524  0.2214509567856270  0.5874529768052181
  0.1929362460358629  0.3978440815555067  0.9761886867192129
  0.8811757539688170  0.6924943497621419  0.5265640997078019
  0.0079510456529518  0.1999779797713384  0.3971340489963158
  0.4855319536896013  0.8625124532817856  0.7348753324924674
  0.3955201377365358  0.9172188398515918  0.2249677540481003
  0.6812130837547224  0.4792266539945940  0.8959307662814240
  0.2785119981537775  0.5357507346990686  0.1089489656055897
  0.0317969477390592  0.8127665622801865  0.5982572874183123
  0.0944756385271624  0.3005420751667456  0.5581791265601284
  0.6119089353430782  0.0043800868275934  0.8057433023603552
  0.4942753585577471  0.1327173488300899  0.2488798324487717
  0.8288563748168557  0.6133311329914958  0.9496903778798549
 
             NaN             NaN             NaN
             NaN             NaN             NaN
             NaN             NaN             NaN
             NaN             NaN             NaN
             NaN             NaN             NaN
             NaN             NaN             NaN
             NaN             NaN             NaN
             NaN             NaN             NaN
             NaN             NaN             NaN
             NaN             NaN             NaN
             NaN             NaN             NaN
             NaN             NaN             NaN
             NaN             NaN             NaN
             NaN             NaN             NaN
             NaN             NaN             NaN
             NaN             NaN             NaN
             NaN             NaN             NaN
             NaN             NaN             NaN
             NaN             NaN             NaN
             NaN             NaN             NaN
             NaN             NaN             NaN
             NaN             NaN             NaN
             NaN             NaN             NaN
             NaN             NaN             NaN
             NaN             NaN             NaN
             NaN             NaN             NaN
             NaN             NaN             NaN
             NaN             NaN             NaN
             NaN             NaN             NaN
             NaN             NaN             NaN
             NaN             NaN             NaN
             NaN             NaN             NaN
             NaN             NaN             NaN
             NaN             NaN             NaN
             NaN             NaN             NaN
             NaN             NaN             NaN
             NaN             NaN             NaN
             NaN             NaN             NaN
