Ca4 V4 P6 O24                           
   1.00000000000000     
     2.6043859999999999    7.2699579999999999    4.4011440000000004
    -0.0101560000000000    0.0462270000000000    8.7994500000000002
     7.6782100000000000    0.0279320000000000    4.2989949999999997
   Ca   V    P    O 
     4     4     6    24
Direct
  0.4669942157661061  0.5770424877139892  0.4824405439873628
  0.9449720060804622  0.0096659243934588  0.0228745227907881
  0.3758565440673676  0.7494325546566769  0.0848874006210538
  0.1114963314479673  0.3927653051297185  0.7545702320448815
  0.6442477807579335  0.6373567638114928  0.6530922994785699
  0.1453723395736684  0.1412697832440332  0.1584743204872165
  0.8567292956572903  0.8648010124094226  0.8395179692048056
  0.3475103806645847  0.3484264793090900  0.3510585856231643
  0.2388054987177813  0.5574041961372537  0.9477525408524102
  0.0382070094304862  0.7567611179124926  0.4567946306145664
  0.9462886873619322  0.2561223251576277  0.5594123382842334
  0.4590952067956038  0.0421207218916203  0.7478651737490161
  0.5426067275993877  0.9444000553605523  0.2467921091047623
  0.7489067370380362  0.4606731608581492  0.0355183039729025
  0.5709911915306409  0.7911859217204646  0.4272188894901811
  0.2664440919628215  0.0716041649081717  0.9095053097786595
  0.4051758794968687  0.5737363606196795  0.7669709187848692
  0.9069626628623428  0.2738762433163215  0.0595719868351375
  0.7638766319908229  0.4249110401769366  0.5630692403690365
  0.0627871651676838  0.9002292730546945  0.2611787114325100
  0.9038064016282860  0.1015504369644861  0.7469782695882811
  0.5843829039105873  0.4758252181905894  0.2159970730257763
  0.7279702244247646  0.9017428054911659  0.0914460065954901
  0.2259297002420599  0.5896446945258835  0.4334022721608919
  0.0782523835936998  0.7440344261098616  0.9219239719565502
  0.4321882559767976  0.2214704784249801  0.5874458012159397
  0.1929314863299829  0.3978310232200412  0.9761946211549306
  0.8811820459143210  0.6924907309567188  0.5265503769658230
  0.0079602897921389  0.1999785601275282  0.3971119127535805
  0.4855114776027190  0.8625421256203448  0.7348775383051096
  0.3955073720970128  0.9172267454819510  0.2249596930681689
  0.6812253429067855  0.4792207300429898  0.8959779617772582
  0.2785247216482357  0.5357316273579015  0.1089582949496154
  0.0318728190459251  0.8127084961176040  0.5981974905594617
  0.0944722744174792  0.3005302073712574  0.5581871276783983
  0.6119076991227158  0.0043640126868457  0.8057561734961152
  0.4942243679291852  0.1327400154431617  0.2489155697002355
  0.8288576812946228  0.6133788581381052  0.9496899962722428
 
             NaN             NaN             NaN
             NaN             NaN             NaN
             NaN             NaN             NaN
             NaN             NaN             NaN
             NaN             NaN             NaN
             NaN             NaN             NaN
             NaN             NaN             NaN
             NaN             NaN             NaN
             NaN             NaN             NaN
             NaN             NaN             NaN
             NaN             NaN             NaN
             NaN             NaN             NaN
             NaN             NaN             NaN
             NaN             NaN             NaN
             NaN             NaN             NaN
             NaN             NaN             NaN
             NaN             NaN             NaN
             NaN             NaN             NaN
             NaN             NaN             NaN
             NaN             NaN             NaN
             NaN             NaN             NaN
             NaN             NaN             NaN
             NaN             NaN             NaN
             NaN             NaN             NaN
             NaN             NaN             NaN
             NaN             NaN             NaN
             NaN             NaN             NaN
             NaN             NaN             NaN
             NaN             NaN             NaN
             NaN             NaN             NaN
             NaN             NaN             NaN
             NaN             NaN             NaN
             NaN             NaN             NaN
             NaN             NaN             NaN
             NaN             NaN             NaN
             NaN             NaN             NaN
             NaN             NaN             NaN
             NaN             NaN             NaN
