V4 S16                                  
   1.00000000000000     
    -0.0689870227335481   -0.0000221364493541    6.9371790107954716
    -5.9099095087340832    5.3607539618530575    2.3827542900557903
    -5.9099436408007220   -5.3608084063760071    2.3827888475375829
   V    S 
     4    16
Direct
  0.6140502698390746  0.3847402278947073  0.8867735931670442
  0.8859369199420338  0.1132239723594436  0.6152725583355148
  0.3859395717886667  0.6152740175917665  0.1132261689963004
  0.1140543268082245  0.8867751759020580  0.3847375065452331
  0.7447287996365624  0.5801672537494735  0.9736439369793781
  0.7552690502909772  0.0263535380912345  0.4198481290990179
  0.2552689680078701  0.4198458730422323  0.0263577747929275
  0.2447261648645315  0.9736446993401078  0.5801629724043069
  0.5462016952032401  0.6822386005826592  0.8250466849537348
  0.9537990332164886  0.1749500453686958  0.3177861793056177
  0.4538007243288559  0.3177842529517058  0.1749496446863594
  0.0462015150010504  0.8250422021439057  0.6822299029242860
  0.9664399910230232  0.3552278013114832  0.6700782241914718
  0.5335723901851785  0.3298979928721522  0.6447805383697246
  0.0335780033901258  0.6447741046386346  0.3298984725138586
  0.4664448742714722  0.6700788708274666  0.3552250041467543
  0.9468027518240701  0.1886695626555063  0.8767949321416157
  0.5531866706387777  0.1231825823051051  0.8113384579534153
  0.0531903019435787  0.8113340823208069  0.1231839948537753
  0.4468079777961978  0.8767951440508551  0.1886653236396423
 
  0.00000000E+00  0.00000000E+00  0.00000000E+00
  0.00000000E+00  0.00000000E+00  0.00000000E+00
  0.00000000E+00  0.00000000E+00  0.00000000E+00
  0.00000000E+00  0.00000000E+00  0.00000000E+00
  0.00000000E+00  0.00000000E+00  0.00000000E+00
  0.00000000E+00  0.00000000E+00  0.00000000E+00
  0.00000000E+00  0.00000000E+00  0.00000000E+00
  0.00000000E+00  0.00000000E+00  0.00000000E+00
  0.00000000E+00  0.00000000E+00  0.00000000E+00
  0.00000000E+00  0.00000000E+00  0.00000000E+00
  0.00000000E+00  0.00000000E+00  0.00000000E+00
  0.00000000E+00  0.00000000E+00  0.00000000E+00
  0.00000000E+00  0.00000000E+00  0.00000000E+00
  0.00000000E+00  0.00000000E+00  0.00000000E+00
  0.00000000E+00  0.00000000E+00  0.00000000E+00
  0.00000000E+00  0.00000000E+00  0.00000000E+00
  0.00000000E+00  0.00000000E+00  0.00000000E+00
  0.00000000E+00  0.00000000E+00  0.00000000E+00
  0.00000000E+00  0.00000000E+00  0.00000000E+00
  0.00000000E+00  0.00000000E+00  0.00000000E+00
