Ca1 V4 S6 O24                           
   1.00000000000000     
     7.6741455351275558    0.2039791386553926    4.4533070992718091
     2.6507049311367465    7.2940651865112756    4.3379955613000849
     0.2423672019118037    0.2671877012716733    8.8748394939971966
   Ca   V    S    O 
     1     4     6    24
Direct
  0.3830833672984533  0.7462848874600219  0.1115320367416061
  0.6488893778044075  0.6340914968962689  0.6429567936457143
  0.1464754518048511  0.1485548344435977  0.1498253701352349
  0.8516987972060434  0.8607254680259120  0.8495622167860962
  0.3447000632126174  0.3433988374830722  0.3520219232728803
  0.9477806463146182  0.2475140079834897  0.5487205174384788
  0.4673531193244152  0.0372279167788389  0.7457866424677556
  0.5355939322890984  0.9502341132003164  0.2479983981407410
  0.7536875684375121  0.4566705772999717  0.0265006046417855
  0.2503485540249415  0.5443187134293396  0.9576283596932215
  0.0361668292782040  0.7486592318203137  0.4547491720429367
  0.4081117965687926  0.5770034643261612  0.7835107879079503
  0.9246350488968464  0.3153864282663896  0.0581300052377623
  0.7740984006703205  0.4114572233096953  0.5588743176491106
  0.0689238890061887  0.9071252436545229  0.2752912691829004
  0.5400562491230368  0.8137641175689947  0.4324060089705687
  0.2906752974548699  0.0702017799913553  0.9075588437538490
  0.7166046815875805  0.9044059702482434  0.1024864971268533
  0.2153758926150880  0.5881941653025410  0.4261025592801181
  0.0755140697159209  0.6932800329670170  0.9354756174346368
  0.4470451829674876  0.1757046825815615  0.5696915673246584
  0.9228915251886022  0.0905609283624265  0.7263072106057948
  0.5859220594452685  0.4255514032724199  0.1958431155049400
  0.9906922910054138  0.1951691438471763  0.3957874720516128
  0.5065322223308223  0.8457330499302610  0.7617386931022641
  0.3893028100669986  0.9448774899425960  0.2141309056420058
  0.7430935873886927  0.4597825807402223  0.8663709231024738
  0.2464068967235747  0.3624386579171605  0.0098735468221989
  0.8817467706759905  0.7110173903428231  0.4803875688383743
  0.1005507495357739  0.2938636253920187  0.5164322911473261
  0.6180796118528886  0.0345468454764937  0.7719818894171466
  0.4805129438084378  0.1386121070065048  0.2405145997516412
  0.7363669870181478  0.6462878151442757  0.9941963669882158
  0.2753644464217025  0.5479155252175724  0.1097404105715459
  0.0022188829363774  0.7880402443704464  0.6104854975796087
 
  0.00000000E+00  0.00000000E+00  0.00000000E+00
  0.00000000E+00  0.00000000E+00  0.00000000E+00
  0.00000000E+00  0.00000000E+00  0.00000000E+00
  0.00000000E+00  0.00000000E+00  0.00000000E+00
  0.00000000E+00  0.00000000E+00  0.00000000E+00
  0.00000000E+00  0.00000000E+00  0.00000000E+00
  0.00000000E+00  0.00000000E+00  0.00000000E+00
  0.00000000E+00  0.00000000E+00  0.00000000E+00
  0.00000000E+00  0.00000000E+00  0.00000000E+00
  0.00000000E+00  0.00000000E+00  0.00000000E+00
  0.00000000E+00  0.00000000E+00  0.00000000E+00
  0.00000000E+00  0.00000000E+00  0.00000000E+00
  0.00000000E+00  0.00000000E+00  0.00000000E+00
  0.00000000E+00  0.00000000E+00  0.00000000E+00
  0.00000000E+00  0.00000000E+00  0.00000000E+00
  0.00000000E+00  0.00000000E+00  0.00000000E+00
  0.00000000E+00  0.00000000E+00  0.00000000E+00
  0.00000000E+00  0.00000000E+00  0.00000000E+00
  0.00000000E+00  0.00000000E+00  0.00000000E+00
  0.00000000E+00  0.00000000E+00  0.00000000E+00
  0.00000000E+00  0.00000000E+00  0.00000000E+00
  0.00000000E+00  0.00000000E+00  0.00000000E+00
  0.00000000E+00  0.00000000E+00  0.00000000E+00
  0.00000000E+00  0.00000000E+00  0.00000000E+00
  0.00000000E+00  0.00000000E+00  0.00000000E+00
  0.00000000E+00  0.00000000E+00  0.00000000E+00
  0.00000000E+00  0.00000000E+00  0.00000000E+00
  0.00000000E+00  0.00000000E+00  0.00000000E+00
  0.00000000E+00  0.00000000E+00  0.00000000E+00
  0.00000000E+00  0.00000000E+00  0.00000000E+00
  0.00000000E+00  0.00000000E+00  0.00000000E+00
  0.00000000E+00  0.00000000E+00  0.00000000E+00
  0.00000000E+00  0.00000000E+00  0.00000000E+00
  0.00000000E+00  0.00000000E+00  0.00000000E+00
  0.00000000E+00  0.00000000E+00  0.00000000E+00
