Ca1 Fe4 S6 O24                          
   1.00000000000000     
     7.5971010000000003    0.1456450000000000    4.4967670000000002
     2.6221100000000002    7.1281350000000003    4.5287420000000003
     0.2017310000000000    0.1791750000000000    8.8318619999999992
   Ca   Fe   S    O 
     1     4     6    24
Direct
  0.2561215558431434  0.8510503628250605  0.5911356668544373
  0.6596361868181095  0.6369643703781830  0.6460656562503242
  0.1383631635502490  0.1525466252743327  0.1332245589632629
  0.8348322998086130  0.8382113579328981  0.8564079148985273
  0.3602309339289630  0.3454029516494504  0.3565456444858276
  0.9596203795666275  0.2499564609953984  0.5211152676378169
  0.4426299886378550  0.0262932388234306  0.7498725226037871
  0.5520330534874246  0.9664830610994034  0.2380002643634473
  0.7455437474610607  0.4542812686721767  0.0527719995943560
  0.2563662128006110  0.5253600179031482  0.9525902943177428
  0.0455659667534188  0.7422302111225720  0.4602376197159910
  0.4201516143776807  0.5605914787023010  0.7742109636078514
  0.9205057825931851  0.2886698931358130  0.0388560749910672
  0.7979038178575700  0.3918780225658669  0.5992579636181640
  0.0503990926522563  0.9337023884274800  0.3307437994193373
  0.5884281156289591  0.7782838253476647  0.3940759367353753
  0.3048993339486561  0.0189116058178982  0.9411987777587426
  0.6936044590014022  0.9598206242026368  0.0537406146808274
  0.2196916482759275  0.6004936673855319  0.3888711979607840
  0.0939451422683365  0.7057132068379569  0.9241650164416366
  0.3914461923147233  0.2191821188022941  0.6112884399275216
  0.9458646006570902  0.0572562299846177  0.6565489451325258
  0.5956625546187365  0.4074991191921140  0.2339955221589881
  0.9681275778571437  0.2847609800520423  0.3367695422685508
  0.4437357724886508  0.8901651476490716  0.6988634001078720
  0.3591878094033905  1.0095643736657727  0.2491901286492184
  0.6854633133216831  0.5225248281587079  0.8941818332200655
  0.2268643270027129  0.3714020547123523  0.9652261023117018
  0.8788573962282868  0.7259880278756157  0.4821970887549948
  0.1412686489222036  0.2364287319368337  0.5064635589638024
  0.6343802260357342  0.9699520583314416  0.7429562197492352
  0.5463019943157874  0.1093425901404574  0.2785641946497682
  0.7791785992628958  0.6071906508840728  0.0410768918744898
  0.2920050244695079  0.4800512499488853  0.1167287559090126
  0.0377885255512068  0.7139977217336665  0.6458681756758021
 
             NaN             NaN             NaN
             NaN             NaN             NaN
             NaN             NaN             NaN
             NaN             NaN             NaN
             NaN             NaN             NaN
             NaN             NaN             NaN
             NaN             NaN             NaN
             NaN             NaN             NaN
             NaN             NaN             NaN
             NaN             NaN             NaN
             NaN             NaN             NaN
             NaN             NaN             NaN
             NaN             NaN             NaN
             NaN             NaN             NaN
             NaN             NaN             NaN
             NaN             NaN             NaN
             NaN             NaN             NaN
             NaN             NaN             NaN
             NaN             NaN             NaN
             NaN             NaN             NaN
             NaN             NaN             NaN
             NaN             NaN             NaN
             NaN             NaN             NaN
             NaN             NaN             NaN
             NaN             NaN             NaN
             NaN             NaN             NaN
             NaN             NaN             NaN
             NaN             NaN             NaN
             NaN             NaN             NaN
             NaN             NaN             NaN
             NaN             NaN             NaN
             NaN             NaN             NaN
             NaN             NaN             NaN
             NaN             NaN             NaN
             NaN             NaN             NaN
