Ca4 Co4 P6 O24                          
   1.00000000000000     
     2.5711070000000000    7.1990369999999997    4.3269690000000001
     0.0329800000000000   -0.0507300000000000    8.6923010000000005
     7.6548309999999997   -0.0099760000000000    4.2473320000000001
   Ca   Co   P    O 
     4     4     6    24
Direct
  0.2487909261849026  0.8786936530960482  0.5965486438578469
  0.9520582756164161  0.0044415777448329  0.0247379799510098
  0.3918928385033036  0.7463480111044516  0.1113413649594983
  0.1457154304221254  0.3960927742902678  0.7443708933101584
  0.6518232667148584  0.6130772663538711  0.6387380994266006
  0.1418244536282858  0.1489993111073944  0.1557159544062656
  0.8421892522882904  0.8544606384928054  0.8453822325332072
  0.3698364140960598  0.3415757900808686  0.3447409695633255
  0.2513581712513264  0.5490819376888696  0.9528805930135477
  0.0378497862074848  0.7478131752732615  0.4512390488593611
  0.9623360304443379  0.2476180498698446  0.5539017105838542
  0.4524076835524122  0.0294824818961602  0.7447440088886349
  0.5448182310329532  0.9434218490315309  0.2448751775223172
  0.7552671786335883  0.4458913053793849  0.0233558389603301
  0.5576345068408564  0.7800096631906179  0.4240105184455404
  0.2597234510269485  0.0654897262200341  0.9068203280362753
  0.4082187679229597  0.5680452535388949  0.7619605860612079
  0.9223865808082096  0.2680674450392806  0.0526846595317512
  0.7869520012766651  0.4134957696231921  0.5445931521493553
  0.0665261316884745  0.9035397751600726  0.2615464552518460
  0.9273692423036335  0.0822702221403382  0.7378088652263544
  0.5875519267202075  0.4486050938807886  0.2000695624996623
  0.7253631728501494  0.9074067699190823  0.0867718708541275
  0.2242785007512758  0.5835808286094558  0.4258510809617576
  0.0947066104787515  0.7403409557171131  0.9177096429555476
  0.4371592167127268  0.2086850619957460  0.5811921498762999
  0.1958492329481490  0.3895979547383240  0.9900400789790500
  0.8716824654918219  0.6992905495190075  0.5071065373890946
  0.0412490803220846  0.1699492356520360  0.3982955072213593
  0.4679607664449328  0.8560286925695623  0.7241128107185371
  0.3795966616259690  0.9521910135623027  0.2176056317551767
  0.7148903256009461  0.4510039832793169  0.8695022343864638
  0.2971044969500036  0.5279312188858274  0.1098198588617382
  0.0284179184778885  0.7927152740920368  0.6064036665522650
  0.1170515345002663  0.2855109712318097  0.5524888162227429
  0.6000924566384206  0.9825205208052304  0.8162855980521990
  0.5024961375610745  0.1246455831026193  0.2676462105311381
  0.8167701069356759  0.6113466603203144  0.9560565226438412
 
             NaN             NaN             NaN
             NaN             NaN             NaN
             NaN             NaN             NaN
             NaN             NaN             NaN
             NaN             NaN             NaN
             NaN             NaN             NaN
             NaN             NaN             NaN
             NaN             NaN             NaN
             NaN             NaN             NaN
             NaN             NaN             NaN
             NaN             NaN             NaN
             NaN             NaN             NaN
             NaN             NaN             NaN
             NaN             NaN             NaN
             NaN             NaN             NaN
             NaN             NaN             NaN
             NaN             NaN             NaN
             NaN             NaN             NaN
             NaN             NaN             NaN
             NaN             NaN             NaN
             NaN             NaN             NaN
             NaN             NaN             NaN
             NaN             NaN             NaN
             NaN             NaN             NaN
             NaN             NaN             NaN
             NaN             NaN             NaN
             NaN             NaN             NaN
             NaN             NaN             NaN
             NaN             NaN             NaN
             NaN             NaN             NaN
             NaN             NaN             NaN
             NaN             NaN             NaN
             NaN             NaN             NaN
             NaN             NaN             NaN
             NaN             NaN             NaN
             NaN             NaN             NaN
             NaN             NaN             NaN
             NaN             NaN             NaN
