Ca4 Co4 P6 O24                          
   1.00000000000000     
     2.5711070000000000    7.1990369999999997    4.3269690000000001
     0.0329800000000000   -0.0507300000000000    8.6923010000000005
     7.6548309999999997   -0.0099760000000000    4.2473320000000001
   Ca   Co   P    O 
     4     4     6    24
Direct
  0.2487683240859012  0.8787079521690770  0.5965629907144190
  0.9520926711109469  0.0044724962796511  0.0247480347456826
  0.3919183506838747  0.7463481330872709  0.1112777650491483
  0.1457156496614147  0.3960592011127153  0.7443953818981350
  0.6518529154306604  0.6130180901470993  0.6387893084707179
  0.1418628520046553  0.1490556226055078  0.1555961303191143
  0.8421987535412481  0.8544677504813142  0.8453708581423641
  0.3697290710450298  0.3414361875127678  0.3447452316293318
  0.2513310985042676  0.5491059513410136  0.9529122817251625
  0.0378242678242024  0.7478631099952067  0.4512345149031943
  0.9623468389164472  0.2476253820477825  0.5539063636983725
  0.4524088177540443  0.0295090729966242  0.7447663120484371
  0.5448196527253344  0.9433329609248802  0.2448727857698561
  0.7552714037190437  0.4459342207347754  0.0233783856618611
  0.5576488951012469  0.7799779408535468  0.4239704886948971
  0.2597420843256465  0.0654620478247449  0.9069133482286222
  0.4082089522215045  0.5680320311772269  0.7619522832613961
  0.9224463473591079  0.2680679624642481  0.0526880949566853
  0.7869689786701151  0.4134910925846430  0.5445706258399140
  0.0665250159266908  0.9036007181343672  0.2615602571659426
  0.9273522315131129  0.0822595673901971  0.7378003669833862
  0.5875856461213164  0.4486392748657659  0.2000326680319985
  0.7253378412608473  0.9073954009169373  0.0867871994818572
  0.2242783383298208  0.5835941451521809  0.4258367429624780
  0.0946745793116427  0.7403194314281963  0.9176953727275614
  0.4371784251593768  0.2086322550910835  0.5812759942113525
  0.1958490619071830  0.3895597329575480  0.9900850773651781
  0.8716866035874632  0.6992795916130852  0.5070989630345502
  0.0412553924026196  0.1699346671155204  0.3982863420635165
  0.4679927781136491  0.8560036404823940  0.7241350456805463
  0.3795752950633745  0.9522624618083089  0.2175862390843560
  0.7149534673796739  0.4509666150542839  0.8694741191432114
  0.2971086215210533  0.5280282601195828  0.1097146499767377
  0.0283946783711938  0.7927413824426826  0.6064066796579241
  0.1170291954371632  0.2854738160231103  0.5525912313907891
  0.6001442006512991  0.9825109754165422  0.8163140196738106
  0.5023362725716357  0.1247353555966131  0.2676180033445636
  0.8167852802121587  0.6113621087903361  0.9560048351013741
 
             NaN             NaN             NaN
             NaN             NaN             NaN
             NaN             NaN             NaN
             NaN             NaN             NaN
             NaN             NaN             NaN
             NaN             NaN             NaN
             NaN             NaN             NaN
             NaN             NaN             NaN
             NaN             NaN             NaN
             NaN             NaN             NaN
             NaN             NaN             NaN
             NaN             NaN             NaN
             NaN             NaN             NaN
             NaN             NaN             NaN
             NaN             NaN             NaN
             NaN             NaN             NaN
             NaN             NaN             NaN
             NaN             NaN             NaN
             NaN             NaN             NaN
             NaN             NaN             NaN
             NaN             NaN             NaN
             NaN             NaN             NaN
             NaN             NaN             NaN
             NaN             NaN             NaN
             NaN             NaN             NaN
             NaN             NaN             NaN
             NaN             NaN             NaN
             NaN             NaN             NaN
             NaN             NaN             NaN
             NaN             NaN             NaN
             NaN             NaN             NaN
             NaN             NaN             NaN
             NaN             NaN             NaN
             NaN             NaN             NaN
             NaN             NaN             NaN
             NaN             NaN             NaN
             NaN             NaN             NaN
             NaN             NaN             NaN
