Cobalt - beta - HT                      
   1.00000000000000     
     2.4646999183963949   -0.0009944805227187    0.0000155133352036
    -1.2332112029545317    2.1339971510361435   -0.0000268788929051
     0.0000304452502948   -0.0000381354207385    3.9456734996232172
   Co
     2
Direct
  0.3334884979635893  0.6665160243290603  0.2500668387169439
  0.6665114720364081  0.3334839756709397  0.7499331612830561
 
  0.00000000E+00  0.00000000E+00  0.00000000E+00
  0.00000000E+00  0.00000000E+00  0.00000000E+00
