Ca4 Mn8 O16                             
   1.00000000000000     
     3.1417536410059257    0.0000000005950485    0.0000002406572627
     0.0000000022836501   10.0382416765652884    0.0000000209661966
     0.0000007689610161    0.0000000207747080    9.7278338969604388
   Ca   Mn   O 
     4     8    16
Direct
  0.6866044737178925  0.1476778158970831  0.7499999724512065
  0.3133939805014521  0.8523278554295146  0.2500000032348950
  0.6866044746228184  0.3523221851594798  0.2499999792823644
  0.3133939782146911  0.6476721442651225  0.7499999957541945
  0.2097534886229511  0.3883485963869546  0.5690260508868477
  0.7902333245424700  0.6116587669407707  0.0690239574608142
  0.2097533290860838  0.1116513569021151  0.4309740653434488
  0.7902331358706007  0.8883413730409941  0.9309759607737575
  0.7902331304540340  0.6116586211723174  0.4309759316616351
  0.2097533160111098  0.3883486390161011  0.9309740953748999
  0.7902333124798417  0.8883412410022657  0.5690239857072186
  0.2097534786164275  0.1116514064275691  0.0690260215761072
  0.6019427306983829  0.2499999688352332  0.5000000909638516
  0.3980939675866324  0.7500001522688322  0.9999999042034773
  0.3980940080625786  0.7499998469493860  0.4999999043432837
  0.6019427529705652  0.2500000308734656  0.0000000910572808
  0.1927213251103126  0.3142971215950752  0.7500001195787362
  0.8072666116700304  0.6857134953199306  0.2499999306442788
  0.1927213224641662  0.1857028781999333  0.2500000965278204
  0.8072666075339612  0.8142865049829524  0.7499999540927007
  0.2058276683386779  0.0263705564282546  0.6080761288485519
  0.7941740624672775  0.9736347835316650  0.1080691956545650
  0.2058282360532644  0.4736292284270931  0.3919238661023954
  0.7941736873866390  0.5263652384914721  0.8919307537733658
  0.7941736743456147  0.9736347556455414  0.3919307554456779
  0.2058282165621890  0.0263707637798873  0.8919238613755880
  0.7941740587929260  0.5263652210098329  0.6080691943702377
  0.2058276472164167  0.4736294520211715  0.1080761335108136
 
  0.00000000E+00  0.00000000E+00  0.00000000E+00
  0.00000000E+00  0.00000000E+00  0.00000000E+00
  0.00000000E+00  0.00000000E+00  0.00000000E+00
  0.00000000E+00  0.00000000E+00  0.00000000E+00
  0.00000000E+00  0.00000000E+00  0.00000000E+00
  0.00000000E+00  0.00000000E+00  0.00000000E+00
  0.00000000E+00  0.00000000E+00  0.00000000E+00
  0.00000000E+00  0.00000000E+00  0.00000000E+00
  0.00000000E+00  0.00000000E+00  0.00000000E+00
  0.00000000E+00  0.00000000E+00  0.00000000E+00
  0.00000000E+00  0.00000000E+00  0.00000000E+00
  0.00000000E+00  0.00000000E+00  0.00000000E+00
  0.00000000E+00  0.00000000E+00  0.00000000E+00
  0.00000000E+00  0.00000000E+00  0.00000000E+00
  0.00000000E+00  0.00000000E+00  0.00000000E+00
  0.00000000E+00  0.00000000E+00  0.00000000E+00
  0.00000000E+00  0.00000000E+00  0.00000000E+00
  0.00000000E+00  0.00000000E+00  0.00000000E+00
  0.00000000E+00  0.00000000E+00  0.00000000E+00
  0.00000000E+00  0.00000000E+00  0.00000000E+00
  0.00000000E+00  0.00000000E+00  0.00000000E+00
  0.00000000E+00  0.00000000E+00  0.00000000E+00
  0.00000000E+00  0.00000000E+00  0.00000000E+00
  0.00000000E+00  0.00000000E+00  0.00000000E+00
  0.00000000E+00  0.00000000E+00  0.00000000E+00
  0.00000000E+00  0.00000000E+00  0.00000000E+00
  0.00000000E+00  0.00000000E+00  0.00000000E+00
  0.00000000E+00  0.00000000E+00  0.00000000E+00
