Ca2 Mn1 O4                              
   1.00000000000000     
    -2.6063639745630893   -2.6044645017270325    0.0019644696586948
    -2.6063905032993646    2.6044838855438845    0.0019922937339213
     2.6111512146293983   -0.0000342594269490   -5.9060287121624153
   Ca   Mn   O 
     2     1     4
Direct
  0.3532195915618493  0.8532210200833674  0.2085252104385988
  0.6468457200832723  0.1468439488840980  0.7914691250379843
  0.0000624299327896  0.5000626670923376  0.4999953473238491
  0.1626694923976294  0.6626622059567486  0.8248946758175763
  0.8373338421895603  0.3373409130232097  0.1751041228920480
  0.9999565997177321  0.9999124129045057  0.5000058365525208
  0.4999123241171671  0.4999568320557257  0.5000056819374226
 
  0.00000000E+00  0.00000000E+00  0.00000000E+00
  0.00000000E+00  0.00000000E+00  0.00000000E+00
  0.00000000E+00  0.00000000E+00  0.00000000E+00
  0.00000000E+00  0.00000000E+00  0.00000000E+00
  0.00000000E+00  0.00000000E+00  0.00000000E+00
  0.00000000E+00  0.00000000E+00  0.00000000E+00
  0.00000000E+00  0.00000000E+00  0.00000000E+00
