Co4 P4 O16                              
   1.00000000000000     
     9.5050815799962987   -0.0000000004177495    0.0000001466105141
     0.0000000014623515    5.7731409342089730    0.0000000061362777
     0.0000000779012781    0.0000000084928664    4.7810488571796217
   Co   P    O 
     4     4    16
Direct
  0.7680235808273039  0.2499999999981739  0.5560698237733916
  0.2680235856945856  0.2499999997709068  0.9439301438749936
  0.2319082180287069  0.7499999999720828  0.4438554160215915
  0.7319082129600005  0.7500000003478036  0.0561446195621329
  0.5909281553014978  0.2499999996878302  0.1152987378383656
  0.0909281462958731  0.2499999999130864  0.3847012675809154
  0.4090400682141180  0.7499999999346016  0.8847071210368398
  0.9090400453932901  0.7499999998654800  0.6152928681869554
  0.6212702003193513  0.2499999992385469  0.8022562183455477
  0.1212702004967880  0.2500000003177405  0.6977438011011259
  0.3787394917569955  0.7500000007511289  0.1977476913553033
  0.8787394962178610  0.7499999998205524  0.3022523003010065
  0.9321490618852764  0.2500000012218493  0.3449014625865914
  0.4321490433204076  0.2499999996486935  0.1550985463030656
  0.0678537858941155  0.7499999990761381  0.6550306001016608
  0.5678537817002507  0.7500000005705942  0.8449693934693343
  0.6606770357032445  0.0422981147366670  0.2657057207738518
  0.1606770465243699  0.4577018906601111  0.2342942909082169
  0.3393666934674755  0.5422833719505391  0.7342632688972444
  0.8393666876200285  0.9577166251025773  0.7657367137408713
  0.3393666936379915  0.9577166271371311  0.7342632650894600
  0.8393666870835048  0.5422833749967637  0.7657367178379602
  0.6606770355037526  0.4577018862150126  0.2657057164559617
  0.1606770461532108  0.0422981090660031  0.2342942948576123
 
  0.00000000E+00  0.00000000E+00  0.00000000E+00
  0.00000000E+00  0.00000000E+00  0.00000000E+00
  0.00000000E+00  0.00000000E+00  0.00000000E+00
  0.00000000E+00  0.00000000E+00  0.00000000E+00
  0.00000000E+00  0.00000000E+00  0.00000000E+00
  0.00000000E+00  0.00000000E+00  0.00000000E+00
  0.00000000E+00  0.00000000E+00  0.00000000E+00
  0.00000000E+00  0.00000000E+00  0.00000000E+00
  0.00000000E+00  0.00000000E+00  0.00000000E+00
  0.00000000E+00  0.00000000E+00  0.00000000E+00
  0.00000000E+00  0.00000000E+00  0.00000000E+00
  0.00000000E+00  0.00000000E+00  0.00000000E+00
  0.00000000E+00  0.00000000E+00  0.00000000E+00
  0.00000000E+00  0.00000000E+00  0.00000000E+00
  0.00000000E+00  0.00000000E+00  0.00000000E+00
  0.00000000E+00  0.00000000E+00  0.00000000E+00
  0.00000000E+00  0.00000000E+00  0.00000000E+00
  0.00000000E+00  0.00000000E+00  0.00000000E+00
  0.00000000E+00  0.00000000E+00  0.00000000E+00
  0.00000000E+00  0.00000000E+00  0.00000000E+00
  0.00000000E+00  0.00000000E+00  0.00000000E+00
  0.00000000E+00  0.00000000E+00  0.00000000E+00
  0.00000000E+00  0.00000000E+00  0.00000000E+00
  0.00000000E+00  0.00000000E+00  0.00000000E+00
