Co4 P4 O16
1.0
9.581100 0.000000 0.000000
0.000000 5.788780 0.000000
0.000000 0.000000 4.768970
Co P O
4 4 16
direct
0.768400 0.250000 0.555600 Co3+
0.268400 0.250000 0.944400 Co3+
0.231600 0.750000 0.444400 Co3+
0.731600 0.750000 0.055600 Co3+
0.592800 0.250000 0.118000 P5+
0.092800 0.250000 0.382000 P5+
0.407200 0.750000 0.882000 P5+
0.907200 0.750000 0.618000 P5+
0.617800 0.250000 0.798400 O2-
0.117800 0.250000 0.701600 O2-
0.382200 0.750000 0.201600 O2-
0.882200 0.750000 0.298400 O2-
0.933900 0.250000 0.341000 O2-
0.433900 0.250000 0.159000 O2-
0.066100 0.750000 0.659000 O2-
0.566100 0.750000 0.841000 O2-
0.659500 0.041400 0.266600 O2-
0.159500 0.458600 0.233400 O2-
0.340500 0.541400 0.733400 O2-
0.840500 0.958600 0.766600 O2-
0.340500 0.958600 0.733400 O2-
0.840500 0.541400 0.766600 O2-
0.659500 0.458600 0.266600 O2-
0.159500 0.041400 0.233400 O2-
