Ca19 V16 P24 O96
1.0
-5.183081 7.360053 8.889258
5.093299 -7.266952 8.726762
10.286139 7.357827 -0.147706
Ca V P O
19 16 24 96
direct
0.506321 0.493373 0.511389 Ca
0.506364 0.974961 0.021791 Ca
0.000135 0.975803 0.522170 Ca
0.001888 0.479946 0.017704 Ca
0.484842 0.002433 0.489906 Ca
0.473079 0.519423 0.995780 Ca
0.974714 0.522005 0.488835 Ca
0.978637 0.016021 0.993422 Ca
0.571012 0.421608 0.244158 Ca
0.567187 0.912950 0.736853 Ca
0.070412 0.917749 0.242153 Ca
0.068590 0.414246 0.737260 Ca
0.258911 0.582374 0.428875 Ca
0.258898 0.082057 0.927606 Ca
0.752543 0.074927 0.425387 Ca
0.753368 0.578458 0.925117 Ca
0.575114 0.248578 0.919446 Ca
0.075987 0.246769 0.420706 Ca
0.075483 0.747695 0.920068 Ca
0.644155 0.641601 0.643951 V
0.644593 0.140825 0.143180 V
0.147920 0.138952 0.641356 V
0.149381 0.637046 0.139496 V
0.146045 0.147601 0.146152 V
0.145034 0.647173 0.645618 V
0.647054 0.649199 0.149095 V
0.644648 0.146708 0.644888 V
0.856440 0.858334 0.846695 V
0.853084 0.355490 0.351735 V
0.354177 0.356456 0.848148 V
0.352181 0.854313 0.352321 V
0.351241 0.349589 0.351309 V
0.350665 0.848832 0.851033 V
0.846126 0.846145 0.348403 V
0.849913 0.348042 0.850226 V
0.400610 0.747915 0.595423 P
0.401994 0.249639 0.094874 P
0.901285 0.246589 0.594112 P
0.901606 0.747994 0.094040 P
0.396137 0.598015 0.244228 P
0.403133 0.100068 0.752799 P
0.901249 0.101704 0.253459 P
0.901296 0.601497 0.752680 P
0.605158 0.404475 0.758240 P
0.601057 0.900188 0.257871 P
0.108431 0.904809 0.761435 P
0.106429 0.404849 0.260779 P
0.242787 0.395774 0.592813 P
0.243217 0.894321 0.094724 P
0.751760 0.898025 0.599779 P
0.742281 0.394258 0.094605 P
0.738020 0.595725 0.394939 P
0.735278 0.090874 0.889714 P
0.237870 0.091505 0.390606 P
0.234447 0.591162 0.887716 P
0.601806 0.248077 0.394089 P
0.600992 0.744133 0.892849 P
0.103365 0.751925 0.394718 P
0.102551 0.247914 0.893440 P
0.664958 0.586598 0.491246 O
0.656959 0.080049 0.983800 O
0.157690 0.078532 0.483000 O
0.155218 0.578976 0.980745 O
0.160098 0.487976 0.576810 O
0.161774 0.987675 0.078789 O
0.667414 0.988986 0.581669 O
0.661563 0.488245 0.080736 O
0.488494 0.664077 0.585497 O
0.489412 0.164573 0.074407 O
0.990032 0.162525 0.574903 O
0.990198 0.664105 0.075726 O
0.589305 0.159941 0.478303 O
0.594710 0.666070 0.986557 O
0.094807 0.667516 0.482572 O
0.092153 0.163523 0.981442 O
0.595071 0.480712 0.666568 O
0.591992 0.989856 0.175485 O
0.097458 0.981197 0.670142 O
0.093320 0.480660 0.169075 O
0.492966 0.586433 0.170701 O
0.485879 0.079081 0.666000 O
0.985698 0.081827 0.167852 O
0.984021 0.581542 0.665626 O
0.512663 0.417453 0.838216 O
0.504613 0.909148 0.330799 O
0.015343 0.916907 0.840574 O
0.012326 0.415990 0.339007 O
0.517497 0.336122 0.406818 O
0.513577 0.828973 0.901610 O
0.009229 0.829468 0.400444 O
0.014815 0.332644 0.903703 O
0.820471 0.506207 0.404164 O
0.826762 0.014795 0.902801 O
0.329672 0.015459 0.401066 O
0.325243 0.514155 0.898292 O
0.414340 0.507315 0.328849 O
0.419040 0.008009 0.835551 O
0.915007 0.007369 0.333801 O
0.917296 0.508143 0.833992 O
0.410339 0.831894 0.507574 O
0.420794 0.333238 0.005683 O
0.921801 0.331804 0.506847 O
0.920263 0.831920 0.005574 O
0.329940 0.416997 0.510481 O
0.330053 0.914665 0.011815 O
0.825191 0.909232 0.502826 O
0.827829 0.414524 0.010188 O
0.295928 0.684324 0.584559 O
0.297025 0.188684 0.083135 O
0.796966 0.185310 0.580793 O
0.797039 0.686821 0.080947 O
0.790087 0.600581 0.711120 O
0.790980 0.101926 0.209855 O
0.292051 0.099114 0.711290 O
0.299475 0.579714 0.175819 O
0.108715 0.288224 0.225410 O
0.108624 0.788421 0.725260 O
0.603103 0.795060 0.197615 O
0.605445 0.287704 0.723033 O
0.681055 0.799298 0.611142 O
0.673808 0.293429 0.075229 O
0.174502 0.294162 0.574835 O
0.174628 0.793423 0.075557 O
0.669087 0.575307 0.296053 O
0.666401 0.065631 0.791894 O
0.167970 0.069360 0.292181 O
0.164299 0.568269 0.790329 O
0.588265 0.675318 0.793618 O
0.590140 0.198246 0.284753 O
0.092748 0.191884 0.786910 O
0.106222 0.691588 0.289756 O
0.415370 0.311458 0.198909 O
0.411636 0.811657 0.700057 O
0.914451 0.809208 0.198671 O
0.913393 0.307188 0.699274 O
0.384662 0.696874 0.314698 O
0.420677 0.201587 0.821458 O
0.920437 0.202218 0.322547 O
0.920453 0.702344 0.821368 O
0.204186 0.430386 0.329570 O
0.205849 0.928342 0.831288 O
0.699613 0.921103 0.327123 O
0.703623 0.426226 0.828116 O
0.820099 0.916052 0.696539 O
0.785850 0.394375 0.204950 O
0.283540 0.396703 0.704242 O
0.285164 0.895329 0.205820 O
0.272888 0.208310 0.389952 O
0.271159 0.707357 0.887773 O
0.798424 0.700717 0.393426 O
0.771021 0.207397 0.887502 O
0.710958 0.298226 0.405621 O
0.706341 0.803626 0.890427 O
0.202095 0.821389 0.407348 O
0.209193 0.303540 0.903498 O
