Ca2 V4 S6 O24                           
   1.00000000000000     
     7.6693920000000002    0.1498430000000000    4.5523980000000002
     2.6439930000000000    7.1735730000000002    4.5481280000000002
     0.1259970000000000    0.1460140000000000    8.9450719999999997
   Ca   V    S    O 
     2     4     6    24
Direct
  0.2712990348134169  0.7799298336645540  0.5545295855125293
  0.9688185679087244  0.0455778782870605 -0.0148326135049418
  0.6598730451855703  0.6179826255501667  0.6570201214205302
  0.1527962283613080  0.1390358911516381  0.1420271995350194
  0.8331499051380969  0.8571038012745631  0.8515682467988107
  0.3543099248948695  0.3643522052463967  0.3516701469369639
  0.9712065179421824  0.2423412071706567  0.5444802704492979
  0.4440118418270751  0.0304081468132602  0.7570688645317661
  0.5517739971418987  0.9639714479509883  0.2427604224835608
  0.7519011521453508  0.4424656595254049  0.0381018072287342
  0.2437884624131262  0.5494241199888921  0.9595395875634554
  0.0351121875314323  0.7520276786674283  0.4429274884824190
  0.4158293570417501  0.5446739599811439  0.7895225517294751
  0.8860664993645790  0.2587377391743007  0.1204606774899613
  0.8080560925049369  0.4127838048895731  0.5203286861971437
  0.0721127790389311  0.8967847695272710  0.2539702603042691
  0.5519388242505429  0.8219510473836230  0.4313004405268407
  0.2472564437175324  0.0942428797018867  0.8876477846491369
  0.7363977380840351  0.9041683224629381  0.1034256010722495
  0.2164017096493306  0.5966903458168200  0.4583102162333920
  0.1021216920097756  0.7393130736220833  0.8877363366311316
  0.4636048245584330  0.1738613623485525  0.5712366633416154
  0.9149026398963677  0.0968282079382839  0.7322074682763294
  0.5697992596269401  0.4789716651276485  0.1821823082385445
  1.0517204209131317  0.1547619629707585  0.4064297246024363
  0.4752243911637522  0.8499782544686769  0.7587483094003190
  0.4017214479992181  0.9617200890861587  0.2180752099296972
  0.7491437218823326  0.4112376909116455  0.8911458121931942
  0.1857736409736298  0.3995425222995029  1.0126495064690153
  0.8990912968808900  0.6899572373363730  0.4731087832134965
  0.1179359142010859  0.2726388948873246  0.5440508987217550
  0.5703839943892557  1.0075874547762793  0.8301581896505498
  0.5183526287515978  0.1484589548377655  0.2289520975295333
  0.8221668824486347  0.5930419541833531  0.9548430536325242
  0.2636984650455165  0.5492748312439445  0.1098654225890980
 -0.0284259960546824  0.8352832486584101  0.5810071074997413
 
             NaN             NaN             NaN
             NaN             NaN             NaN
             NaN             NaN             NaN
             NaN             NaN             NaN
             NaN             NaN             NaN
             NaN             NaN             NaN
             NaN             NaN             NaN
             NaN             NaN             NaN
             NaN             NaN             NaN
             NaN             NaN             NaN
             NaN             NaN             NaN
             NaN             NaN             NaN
             NaN             NaN             NaN
             NaN             NaN             NaN
             NaN             NaN             NaN
             NaN             NaN             NaN
             NaN             NaN             NaN
             NaN             NaN             NaN
             NaN             NaN             NaN
             NaN             NaN             NaN
             NaN             NaN             NaN
             NaN             NaN             NaN
             NaN             NaN             NaN
             NaN             NaN             NaN
             NaN             NaN             NaN
             NaN             NaN             NaN
             NaN             NaN             NaN
             NaN             NaN             NaN
             NaN             NaN             NaN
             NaN             NaN             NaN
             NaN             NaN             NaN
             NaN             NaN             NaN
             NaN             NaN             NaN
             NaN             NaN             NaN
             NaN             NaN             NaN
             NaN             NaN             NaN
