Ca2 V4 S6 O24
1.0
7.669392 0.149843 4.552398
2.643993 7.173573 4.548128
0.125997 0.146014 8.945072
Ca V S O
2 4 6 24
direct
0.348524 0.730031 0.553927 Ca
0.968909 1.018683 1.007603 Ca
0.648599 0.640834 0.653802 V
0.142586 0.146023 0.144405 V
0.845116 0.851800 0.842605 V
0.360988 0.350966 0.346756 V
0.963858 0.247150 0.538514 S
0.434792 0.039918 0.752698 S
0.556190 0.957064 0.240944 S
0.746444 0.448369 0.044564 S
0.246111 0.546912 0.953407 S
0.039145 0.750191 0.452267 S
0.407165 0.561818 0.774839 O
0.888690 0.259767 0.099168 O
0.817171 0.424452 0.542516 O
0.081009 0.893710 0.263155 O
0.570172 0.787133 0.409848 O
0.247145 0.085704 0.897228 O
0.727877 0.914583 0.086213 O
0.186690 0.571194 0.452659 O
0.092150 0.736930 0.916760 O
0.444254 0.205979 0.584238 O
0.921781 0.097576 0.726300 O
0.575770 0.464154 0.205504 O
0.981310 0.195996 0.399661 O
0.449476 0.888286 0.716683 O
0.389815 0.998334 0.214036 O
0.716480 0.452286 0.897003 O
0.189549 0.401578 0.992349 O
0.862698 0.746647 0.498223 O
0.140547 0.244669 0.507314 O
0.578204 -0.018333 0.822694 O
0.549204 0.112386 0.259766 O
0.817504 0.590934 -0.016526 O
0.287793 0.520685 0.102969 O
0.032419 0.801632 0.587546 O
