Cr5 S8                                  
   1.00000000000000     
     0.0130535550205271   -3.3999828503772074   -5.6005359548122460
    -0.0134587843731505   -3.4055886926691246    5.6005741136927361
    -5.9213359706590696    3.4037958164992235    0.1163439366701606
   Cr   S 
     5     8
Direct
 -0.0024589952210726 -0.0031232739090587  0.0007123438671008
  0.2625683169811309  0.7282364591486773  0.9884447226568295
  0.7388158727091613  0.2744627153895609  0.0113932600969169
  0.7659462392846115  0.2660212334923229  0.4997502415055350
  0.2290274711094828  0.7280720323961666  0.4999881854529370
  0.3003242105253103  0.0197839980415283  0.3183200432558349
  0.7017911649015649  0.9821060270556974  0.6819309806038928
  0.7935018772613978  0.5493364564792920  0.3337824913515460
  0.2151834328333065  0.4594555647875013  0.6662531543789689
  0.1919247188040893  0.4514265888189731  0.1674701368027415
  0.7165717053988206  0.9730934186054150  0.1694100068359885
  0.8035631439713233  0.5470528372582103  0.8306786036084177
  0.2832408414408665  0.0240759424357212  0.8318658295832908
 
  0.00000000E+00  0.00000000E+00  0.00000000E+00
  0.00000000E+00  0.00000000E+00  0.00000000E+00
  0.00000000E+00  0.00000000E+00  0.00000000E+00
  0.00000000E+00  0.00000000E+00  0.00000000E+00
  0.00000000E+00  0.00000000E+00  0.00000000E+00
  0.00000000E+00  0.00000000E+00  0.00000000E+00
  0.00000000E+00  0.00000000E+00  0.00000000E+00
  0.00000000E+00  0.00000000E+00  0.00000000E+00
  0.00000000E+00  0.00000000E+00  0.00000000E+00
  0.00000000E+00  0.00000000E+00  0.00000000E+00
  0.00000000E+00  0.00000000E+00  0.00000000E+00
  0.00000000E+00  0.00000000E+00  0.00000000E+00
  0.00000000E+00  0.00000000E+00  0.00000000E+00
