Ca6 Si2 O2                              
   1.00000000000000     
     0.0000000502380171   -6.6461221930159375   -0.0000240365054113
    -3.3291527081953292   -3.3230780244501190   -4.6980463222819075
     3.3291526447918285   -3.3230780728844223   -4.6980462438205901
   Ca   Si   O 
     6     2     2
Direct
  0.2499999968512178  0.2819663253990004  0.2180336754373781
  0.7500000151174975  0.7180339460973835  0.7819660412554864
  0.2669292030317679  0.2330669237689853  0.7330738085403391
  0.2330708282654842  0.7669261591711681  0.2669330629053272
  0.7330705724528122  0.7669330423898763  0.2669262762470785
  0.7669294414471448  0.2330736923122588  0.7330669136085683
  0.7499999965322314  0.2487005099825272  0.2512995258966076
  0.2499999499655132  0.7512994087383607  0.7487006597607375
  0.5000000028085100  0.9999999799920903  0.0000000202270687
  0.9999999935278211  0.5000000121483564  0.5000000161214083
 
  0.00000000E+00  0.00000000E+00  0.00000000E+00
  0.00000000E+00  0.00000000E+00  0.00000000E+00
  0.00000000E+00  0.00000000E+00  0.00000000E+00
  0.00000000E+00  0.00000000E+00  0.00000000E+00
  0.00000000E+00  0.00000000E+00  0.00000000E+00
  0.00000000E+00  0.00000000E+00  0.00000000E+00
  0.00000000E+00  0.00000000E+00  0.00000000E+00
  0.00000000E+00  0.00000000E+00  0.00000000E+00
  0.00000000E+00  0.00000000E+00  0.00000000E+00
  0.00000000E+00  0.00000000E+00  0.00000000E+00
