Ca2 Co1 O3                              
   1.00000000000000     
     2.2624384071237325    2.2843361506619337   -0.3116500366196976
     2.2622314472215930   -2.2842243390427397   -0.3117471901889039
    -0.0647273401862541   -0.0013510817055231  -11.0609718124730190
   Ca   Co   O 
     2     1     3
Direct
  0.4327243899885327  0.4326377379835170  0.7053684212440258
  0.5673524032748213  0.5673080867864203  0.2946479590115934
 -0.0001468914566229  0.0001400839986076  0.4999714735214948
  0.4999911099260120  0.4999683594327820  0.5000060638510426
  0.0653102686028093  0.0652587490457491  0.3004169984903193
  0.9347687196644546  0.9346869827529239  0.6995890838815239
 
  0.00000000E+00  0.00000000E+00  0.00000000E+00
  0.00000000E+00  0.00000000E+00  0.00000000E+00
  0.00000000E+00  0.00000000E+00  0.00000000E+00
  0.00000000E+00  0.00000000E+00  0.00000000E+00
  0.00000000E+00  0.00000000E+00  0.00000000E+00
  0.00000000E+00  0.00000000E+00  0.00000000E+00
