Ca1 Fe4 S6 O24                          
   1.00000000000000     
     7.5877460000000001    0.1642460000000000    4.5226600000000001
     2.6407389999999999    7.1103079999999999    4.5476140000000003
     0.2324860000000000    0.1927630000000000    8.8358580000000000
   Ca   Fe   S    O 
     1     4     6    24
Direct
  0.2596849008355346  0.8001108743222677  0.5679698388612036
  0.6609602654997399  0.6346202213056336  0.6470667366370541
  0.1406498882866418  0.1519699260512150  0.1358516661974640
  0.8292117287784266  0.8482096580727484  0.8569044251393241
  0.3601483598259450  0.3495389340447903  0.3579163501770063
  0.9630863864406507  0.2511675208059904  0.5205419000202075
  0.4439652337426434  0.0314616452420178  0.7522025778164192
  0.5507119820656196  0.9660110514893208  0.2411833222779654
  0.7464900798215897  0.4553744589229529  0.0508793775353744
  0.2575154459757182  0.5290247720188473  0.9550310087332025
  0.0416905233043573  0.7377414820641403  0.4574558454735364
  0.4214655180720090  0.5661184645259814  0.7747313784753256
  0.9281733506563851  0.2967442931107429  0.0347002601895845
  0.7871906912153478  0.3821410888935324  0.6043675585658478
  0.0327182068378990  0.9380659532389762  0.3345250291663282
  0.5863937821218878  0.7766696123232599  0.3973583562716231
  0.3069786788835085  0.0123428091747414  0.9479501753227353
  0.6949112894090985  0.9619131398796802  0.0590931610293924
  0.2332845531681043  0.6097261715051043  0.3923378595742345
  0.0913249869933857  0.7036049289395464  0.9174739126793069
  0.3783732130546578  0.2236667979042595  0.6199397655523919
  0.9718169914112226  0.0481935047942233  0.6506114938772253
  0.6007665241273613  0.3982225992845073  0.2354759896652801
  0.9721851787258419  0.2812018119623370  0.3361889952030722
  0.4680696777336684  0.8884452509932895  0.6958259051984677
  0.3582800120403725  1.0028780130650927  0.2506848230992690
  0.6878478047601582  0.5141699194079961  0.8966304009478232
  0.2416876332722946  0.3648178144354332  0.9715570764778455
  0.8963367406559508  0.7004260302425513  0.4636207769357055
  0.1302277142413348  0.2663581770535950  0.4999158081358153
  0.6316957356171792  0.9991890006829172  0.7420183709963141
  0.5352529758966440  0.1112370289797378  0.2845035536336205
  0.7626388995891302  0.6189549129681332  0.0409860266457141
  0.2860229400948592  0.4991776811511321  0.1166357428211518
  0.0091335895794232  0.7122112496200032  0.6527651881935324
 
             NaN             NaN             NaN
             NaN             NaN             NaN
             NaN             NaN             NaN
             NaN             NaN             NaN
             NaN             NaN             NaN
             NaN             NaN             NaN
             NaN             NaN             NaN
             NaN             NaN             NaN
             NaN             NaN             NaN
             NaN             NaN             NaN
             NaN             NaN             NaN
             NaN             NaN             NaN
             NaN             NaN             NaN
             NaN             NaN             NaN
             NaN             NaN             NaN
             NaN             NaN             NaN
             NaN             NaN             NaN
             NaN             NaN             NaN
             NaN             NaN             NaN
             NaN             NaN             NaN
             NaN             NaN             NaN
             NaN             NaN             NaN
             NaN             NaN             NaN
             NaN             NaN             NaN
             NaN             NaN             NaN
             NaN             NaN             NaN
             NaN             NaN             NaN
             NaN             NaN             NaN
             NaN             NaN             NaN
             NaN             NaN             NaN
             NaN             NaN             NaN
             NaN             NaN             NaN
             NaN             NaN             NaN
             NaN             NaN             NaN
             NaN             NaN             NaN
