Co4 P4                                  
   1.00000000000000     
     4.9808267000225008   -0.0000000173834213   -0.0000195595737238
    -0.0000000109417215    3.2115277840241316    0.0000000001323162
    -0.0000155410324246   -0.0000000042496479    5.4949427241721898
   Co   P 
     4     4
Direct
  0.4980585688418162  0.2499999980211778  0.2975045441369588
  0.9980208123898447  0.2500000019177531  0.2024973234124664
  0.5019676033763316  0.7499999964382100  0.7025286666345139
  0.0019293470946667  0.7500000039590479  0.7974715874581020
  0.6911299110163381  0.2499999999741741  0.9204277725315224
  0.1911671573294548  0.2500000014651725  0.5795765201083275
  0.3088483250463414  0.7499999981873232  0.0795701925856009
  0.8088782749052063  0.7500000000371413  0.4204233931325010
 
  0.00000000E+00  0.00000000E+00  0.00000000E+00
  0.00000000E+00  0.00000000E+00  0.00000000E+00
  0.00000000E+00  0.00000000E+00  0.00000000E+00
  0.00000000E+00  0.00000000E+00  0.00000000E+00
  0.00000000E+00  0.00000000E+00  0.00000000E+00
  0.00000000E+00  0.00000000E+00  0.00000000E+00
  0.00000000E+00  0.00000000E+00  0.00000000E+00
  0.00000000E+00  0.00000000E+00  0.00000000E+00
