V2 P2                                   
   1.00000000000000     
     3.1684435815744347    0.0000105133548406   -0.0000000223795750
    -1.5842126859363079    2.7439579832482210    0.0000000166499019
    -0.0000000448939636    0.0000000123612456    6.1770815344884271
   V    P 
     2     2
Direct
  0.9999999939364841  0.9999999976610709  0.4999999965364026
  0.9999999975711447  0.9999999997602202  0.9999999983331165
  0.3333330373048753  0.6666669622785193  0.2500000731973984
  0.6666669711874889  0.3333330403001966  0.7499999319330826
 
  0.00000000E+00  0.00000000E+00  0.00000000E+00
  0.00000000E+00  0.00000000E+00  0.00000000E+00
  0.00000000E+00  0.00000000E+00  0.00000000E+00
  0.00000000E+00  0.00000000E+00  0.00000000E+00
