Ca1 Fe4 S6 O24
1.0
7.550323 0.238651 4.626233
2.715255 7.038998 4.623103
0.355507 0.247114 8.851838
Ca Fe S O
1 4 6 24
direct
0.466404 0.545928 0.511418 Ca
0.648004 0.645501 0.647890 Fe
0.143349 0.145798 0.146009 Fe
0.848058 0.848154 0.849353 Fe
0.349807 0.348833 0.347786 Fe
0.950412 0.250511 0.533372 S
0.458845 0.042493 0.744530 S
0.535351 0.953502 0.249556 S
0.746411 0.458312 0.042736 S
0.248616 0.534983 0.953522 S
0.045369 0.744572 0.459847 S
0.384312 0.607631 0.755231 O
0.942910 0.318024 0.019446 O
0.757328 0.388257 0.607815 O
0.026271 0.940280 0.318446 O
0.608552 0.756429 0.386795 O
0.320244 0.021447 0.941781 O
0.673647 0.972786 0.052893 O
0.239388 0.607252 0.385666 O
0.052707 0.676486 0.973082 O
0.385014 0.240230 0.608985 O
0.968761 0.053959 0.674603 O
0.611542 0.386465 0.240696 O
0.960776 0.271010 0.351819 O
0.485532 0.898413 0.690441 O
0.348813 0.970181 0.273177 O
0.689239 0.488742 0.899767 O
0.266428 0.350791 0.971998 O
0.896335 0.695299 0.493358 O
0.100592 0.296779 0.502495 O
0.644773 0.023301 0.723063 O
0.508230 0.098827 0.301522 O
0.729852 0.641948 0.024069 O
0.303078 0.506800 0.097119 O
0.035760 0.725455 0.640535 O
