Ca4 Mn4 P6 O24                          
   1.00000000000000     
     2.6512509999999998    7.7221019999999996    4.4473760000000002
     0.0035640000000000    0.2414540000000000    8.6338279999999994
     7.5910169999999999    0.2660000000000000    4.1993140000000002
   Ca   Mn   P    O 
     4     4     6    24
Direct
  0.4414126490758654  0.5748442937094480  0.4940991722464839
  0.9162821464432983  0.9968956565482950  0.0586747549085539
  0.3726129592659107  0.7391624755176317  0.0797605362693280
  0.1165737128490376  0.3813667787704348  0.7705555750320827
  0.6423455400849980  0.6554095567444640  0.6440177821932771
  0.1668007942398988  0.1367313074356499  0.1732584719616721
  0.8561692657374403  0.8659548982445335  0.8251041129237046
  0.3249619896796596  0.3087666359262450  0.3699045413139278
  0.2410644186157921  0.5523107809055242  0.9571171001978033
  0.0365027651099801  0.7651879061617102  0.4490000539556189
  0.9405487460083737  0.2537292696716130  0.5794325005024030
  0.4583466178114428  0.0492849868515279  0.7380057695116831
  0.5557069181295322  0.9226023314370773  0.2414715721926457
  0.7467232264916271  0.4903452142838462  0.0194147856801353
  0.5872571013466946  0.7592873132647999  0.4175826974856259
  0.2799431307755488  0.0688731301892062  0.9105908616941026
  0.4027521185768674  0.5622442839615794  0.7752882339474125
  0.8793056638245139  0.2900603527727489  1.0344629589587984
  0.7719531598849446  0.4276979164798188  0.5859724427079103
  0.0758559789676007  0.9081982666142578  0.2495255002834643
  0.8912150137089702  0.0926703988244626  0.7620902477514726
  0.6075169724849181  0.5253705708446246  0.2032724751808938
  0.7296456617417750  0.8784917550049540  0.0781444463133358
  0.2105781975621152  0.5884052834073010  0.4398328726999356
  0.0930135093391087  0.7439608185768779  0.9409731439253978
  0.4235398879264400  0.2405987110574503  0.5833955178369300
  0.1875707333341125  0.3955586872860581 -0.0145551457321056
  0.8755390724323737  0.7249094467018096  0.5023412988777808
  1.0064819131121607  0.2084567341703396  0.4036679735216618
  0.4749959590143403  0.8852505776699265  0.6966658216547335
  0.3995373356231675  0.9156403386620178  0.2289975298546864
  0.6401251872900021  0.5472659933280374  0.8991105896006755
  0.2879753218905337  0.5061211535673432  0.1251922853236407
  0.0268091355697393  0.8301332322034357  0.5915284219151030
  0.0870665321498578  0.2811428345499528  0.5893080587791207
  0.6119494692578195 -0.0031739539521422  0.7892682391178020
  0.5266350955832187  0.1076215861131871  0.2500886458046768
  0.8661200609403428  0.6128769921977050  0.9079465719831485
 
             NaN             NaN             NaN
             NaN             NaN             NaN
             NaN             NaN             NaN
             NaN             NaN             NaN
             NaN             NaN             NaN
             NaN             NaN             NaN
             NaN             NaN             NaN
             NaN             NaN             NaN
             NaN             NaN             NaN
             NaN             NaN             NaN
             NaN             NaN             NaN
             NaN             NaN             NaN
             NaN             NaN             NaN
             NaN             NaN             NaN
             NaN             NaN             NaN
             NaN             NaN             NaN
             NaN             NaN             NaN
             NaN             NaN             NaN
             NaN             NaN             NaN
             NaN             NaN             NaN
             NaN             NaN             NaN
             NaN             NaN             NaN
             NaN             NaN             NaN
             NaN             NaN             NaN
             NaN             NaN             NaN
             NaN             NaN             NaN
             NaN             NaN             NaN
             NaN             NaN             NaN
             NaN             NaN             NaN
             NaN             NaN             NaN
             NaN             NaN             NaN
             NaN             NaN             NaN
             NaN             NaN             NaN
             NaN             NaN             NaN
             NaN             NaN             NaN
             NaN             NaN             NaN
             NaN             NaN             NaN
             NaN             NaN             NaN
