Ca4 Mn4 P6 O24
1.0
2.651251 7.722102 4.447376
0.003564 0.241454 8.633828
7.591017 0.266000 4.199314
Ca Mn P O
4 4 6 24
direct
0.464673 0.586436 0.550740 Ca
0.901697 0.984163 0.083764 Ca
0.371358 0.739445 0.108533 Ca
0.135531 0.388161 0.758604 Ca
0.636835 0.659156 0.636955 Mn
0.157917 0.142227 0.183598 Mn
0.852205 0.857914 0.830814 Mn
0.355267 0.315141 0.351291 Mn
0.246670 0.548161 0.954141 P
0.029218 0.770117 0.442348 P
0.946303 0.244636 0.591482 P
0.461290 0.049597 0.728731 P
0.554559 0.907966 0.248934 P
0.748046 0.484614 0.004586 P
0.581280 0.735588 0.420893 O
0.291790 0.064510 0.905658 O
0.395596 0.556908 0.762415 O
0.880541 0.289839 0.996694 O
0.780159 0.417351 0.611439 O
0.074283 0.921704 0.248335 O
0.901486 0.077990 0.770580 O
0.615240 0.492012 0.199452 O
0.724655 0.864739 0.081601 O
0.196003 0.592060 0.433169 O
0.096190 0.740167 0.944323 O
0.428047 0.241468 0.576368 O
0.181460 0.392501 0.000523 O
0.864417 0.749799 0.472107 O
0.986764 0.206532 0.420260 O
0.476096 0.898700 0.670600 O
0.391230 0.929878 0.228302 O
0.631528 0.575941 0.884696 O
0.309025 0.503279 0.110058 O
0.011697 0.828028 0.595034 O
0.104656 0.262765 0.584304 O
0.619240 0.004803 0.766805 O
0.542540 0.083149 0.263654 O
0.866876 0.604592 0.911382 O
