Ca2 Co4 S6 O24                          
   1.00000000000000     
     7.6199079999999997    0.0516160000000000    4.4736599999999997
     2.6350140000000000    7.0366470000000003    4.5105750000000002
     0.1845080000000000    0.0062080000000000    8.8160570000000007
   Ca   Co   S    O 
     2     4     6    24
Direct
  0.4653958112294734  0.5585532403651017  0.4886450559407665
  0.9859260188479279  0.0241428822898935  0.9862360189913975
  0.6526259290281962  0.6331589540917758  0.6649387497253441
  0.1537699619742927  0.1451811076038514  0.1455964199221941
  0.8394846411948087  0.8653168670773272  0.8414654872247419
  0.3416641015888386  0.3569708285809380  0.3496779783382987
  0.9478163718873788  0.2566295030015965  0.5449976467480528
  0.4485969191608512  0.0461597859269108  0.7534117211747545
  0.5390401932934408  0.9572239456510970  0.2482349980569745
  0.7467274453994516  0.4506475738706129  0.0467253536845914
  0.2396833715169169  0.5564909130155477  0.9563155056410985
  0.0388280755446820  0.7556526245766958  0.4487305127228263
  0.4152844481801961  0.5504591494917374  0.7848103504518671
  0.8912371559162727  0.2638256386555514  0.1064991788036279
  0.7739492656255663  0.4290365622758860  0.5328321463544429
  0.0766329795832247  0.9002649845877939  0.2567682171197285
  0.5446308700922360  0.8072015268860779  0.4343357621518740
  0.2527620129307868  0.1033232506004216  0.8904843372989765
  0.7297562159024424  0.9105030663272776  0.1040743586543750
  0.2123347018741472  0.5815294850726419  0.4499084754985240
  0.0931988060070288  0.7454747480516583  0.9044877760113790
  0.4573474270943421  0.1987277619869177  0.5667726180268182
  0.8962315957997816  0.1115785529505882  0.7351747919228317
  0.5708726760206946  0.4703113806044349  0.2139852471072633
  1.0123099548616348  0.1868026619229638  0.3973848971659547
  0.4840744741038063  0.8642449184224038  0.7527173517364962
  0.3993243929164288  0.9488436140447268  0.2117308933055850
  0.7171750723736107  0.4408890188920560  0.9024353737142410
  0.1836967941674175  0.4041120299715609  0.0019547759601544
  0.8808270148345597  0.7141353106672210  0.4875268691402647
  0.0935421242092534  0.2965096716218764  0.5371455746072727
  0.5835765922894384  0.0319311290015739  0.8126384561811000
  0.4909698206649178  0.1448086123219708  0.2446519472325381
  0.8102101416833750  0.6060726331113381  0.9730945931716963
  0.2689990331350659  0.5429433149298412  0.1113038374330546
  0.0086745583775841  0.8209321297479047  0.5873175241199804
 
             NaN             NaN             NaN
             NaN             NaN             NaN
             NaN             NaN             NaN
             NaN             NaN             NaN
             NaN             NaN             NaN
             NaN             NaN             NaN
             NaN             NaN             NaN
             NaN             NaN             NaN
             NaN             NaN             NaN
             NaN             NaN             NaN
             NaN             NaN             NaN
             NaN             NaN             NaN
             NaN             NaN             NaN
             NaN             NaN             NaN
             NaN             NaN             NaN
             NaN             NaN             NaN
             NaN             NaN             NaN
             NaN             NaN             NaN
             NaN             NaN             NaN
             NaN             NaN             NaN
             NaN             NaN             NaN
             NaN             NaN             NaN
             NaN             NaN             NaN
             NaN             NaN             NaN
             NaN             NaN             NaN
             NaN             NaN             NaN
             NaN             NaN             NaN
             NaN             NaN             NaN
             NaN             NaN             NaN
             NaN             NaN             NaN
             NaN             NaN             NaN
             NaN             NaN             NaN
             NaN             NaN             NaN
             NaN             NaN             NaN
             NaN             NaN             NaN
             NaN             NaN             NaN
