Ca2 Co4 S6 O24                          
   1.00000000000000     
     7.6199079999999997    0.0516160000000000    4.4736599999999997
     2.6350140000000000    7.0366470000000003    4.5105750000000002
     0.1845080000000000    0.0062080000000000    8.8160570000000007
   Ca   Co   S    O 
     2     4     6    24
Direct
  0.4357029570611267  0.5832510936165706  0.4959833798627765
  0.9884004809585258  0.0205028181767600  0.9853166260679120
  0.6478162523788533  0.6366426660897300  0.6664218037415970
  0.1490989932382659  0.1455222435744691  0.1463566283530010
  0.8439404643748878  0.8595809117297959  0.8433150888542976
  0.3471453764859198  0.3578771985112754  0.3488415128692400
  0.9493411685774732  0.2543054277408526  0.5424758799566873
  0.4464901860588920  0.0480240777868493  0.7524347603703748
  0.5443664470149359  0.9580610548405049  0.2479496160589825
  0.7456387182640021  0.4509752734530866  0.0484083746186425
  0.2413155274265184  0.5530935904230880  0.9580425935023684
  0.0363960874409995  0.7569771966490428  0.4466084580009806
  0.4178469551078343  0.5433276138562499  0.7880129329578511
  0.8875187245999631  0.2610288843894923  0.1068015990458695
  0.7782437275469722  0.4287411836999355  0.5397530081862204
  0.0807035129537086  0.8986412370408339  0.2541615250658484
  0.5475232267427869  0.8047558655184337  0.4331429174215475
  0.2514349507318169  0.1029701282579238  0.8922286367862302
  0.7328649532678454  0.9053570720848414  0.1030804068752192
  0.2062069078146306  0.5794480819496896  0.4499100174558316
  0.0982253120117266  0.7433203911908652  0.9018570272121842
  0.4551764922070115  0.2085135882541614  0.5709435716496283
  0.9034469338967163  0.1051766993359489  0.7324083065781773
  0.5692138763253721  0.4742672328168081  0.2141488125304404
  0.9978073337684935  0.1906508657720282  0.3958559282413960
  0.4736140251585292  0.8756222935302644  0.7386268019998791
  0.3963245078825819  0.9608815603135009  0.2141575994347074
  0.7149749361728303  0.4476799153413129  0.9011478119452154
  0.1834417913098233  0.4017700614655926  0.0051237640348505
  0.8733752853277100  0.7249058310929160  0.4854594096490220
  0.1069333394552545  0.2837170529990669  0.5249107697868235
  0.5842701544503385  1.0162721938426531  0.8182853782424589
  0.5115796134874192  0.1389758547338571  0.2474296863641264
  0.8151706219623406  0.6013805783220796  0.9783226590236349
  0.2714430174663371  0.5409627577356582  0.1118345168831866
  0.0138062728857733  0.8180221953277093  0.5853961670218927
 
             NaN             NaN             NaN
             NaN             NaN             NaN
             NaN             NaN             NaN
             NaN             NaN             NaN
             NaN             NaN             NaN
             NaN             NaN             NaN
             NaN             NaN             NaN
             NaN             NaN             NaN
             NaN             NaN             NaN
             NaN             NaN             NaN
             NaN             NaN             NaN
             NaN             NaN             NaN
             NaN             NaN             NaN
             NaN             NaN             NaN
             NaN             NaN             NaN
             NaN             NaN             NaN
             NaN             NaN             NaN
             NaN             NaN             NaN
             NaN             NaN             NaN
             NaN             NaN             NaN
             NaN             NaN             NaN
             NaN             NaN             NaN
             NaN             NaN             NaN
             NaN             NaN             NaN
             NaN             NaN             NaN
             NaN             NaN             NaN
             NaN             NaN             NaN
             NaN             NaN             NaN
             NaN             NaN             NaN
             NaN             NaN             NaN
             NaN             NaN             NaN
             NaN             NaN             NaN
             NaN             NaN             NaN
             NaN             NaN             NaN
             NaN             NaN             NaN
             NaN             NaN             NaN
