Ca1 V4 P6 O24                           
   1.00000000000000     
     2.6061820000000000    6.9522899999999996    4.5117450000000003
     0.2755680000000000    0.1776260000000000    8.7159530000000007
     7.4236529999999998    0.1653030000000000    4.5387409999999999
   Ca   V    P    O 
     1     4     6    24
Direct
  0.4479503569218817  0.5510574501856638  0.4986109010229700
  0.6431901189945520  0.6475012363628757  0.6462425317912930
  0.1367923416115936  0.1472577901844993  0.1450725284141294
  0.8485666592310275  0.8564437409516287  0.8589422100316226
  0.3441455776348057  0.3527773684862621  0.3607395651279839
  0.2468882795195097  0.5267307975230229  0.9652801270626873
  0.0251861459351071  0.7562354140178628  0.4633918423259747
  0.9587012507457322  0.2541724648845667  0.5315356894379990
  0.4612179081174941  0.0401778176234248  0.7495732261166687
  0.5308917973541316  0.9659062288989644  0.2485178914066108
  0.7390629247765488  0.4747101895817079  0.0417358794272953
  0.5900412788244693  0.7649115851855509  0.4077967439325811
  0.3025697855773691  0.0298420330281986  0.9481901454054901
  0.3970736984077596  0.5969315241171231  0.7666596233584988
  0.9399950716972457  0.3174375410842421  0.0278571312528965
  0.7572646888188748  0.4047626366168876  0.5970676682607896
  0.0155477374754530  0.9637741565225492  0.3120782992561466
  0.9741217416523257  0.0490818865089266  0.6793613508044405
  0.5833810201344882  0.4083299446056341  0.2371681328050726
  0.6953907736203171  0.9759767401378066  0.0519355352726534
  0.2260923565310862  0.6104336018663807  0.3892610086748408
  0.0444833044516744  0.6832427285436339  0.9656884940384197
  0.4048292603861390  0.2464927688424519  0.5961445814077809
  0.2645131037978367  0.3351760179223566  0.9794111584465506
  0.8692194015892893  0.7108347587434055  0.4821730134116861
  0.9902492875412019  0.2776780954874882  0.3305261861142013
  0.4934068086316545  0.8865657064981779  0.6916046953567507
  0.3458065934372990  0.9741883923400605  0.2580581708884962
  0.6934923836074540  0.5116712593710406  0.8728572158615091
  0.2864124022678863  0.5006640077947740  0.1284456412954879
  0.0115437522869515  0.7323115232867884  0.6564419012638307
  0.1172224190803874  0.3026527459537201  0.5127416869232773
  0.6543314648582436  1.0103134204029764  0.7480007483787426
  0.4930431622711325  0.1247555206534405  0.3034429883408472
  0.7206393522076764  0.6640565115530495  0.0303368897334370
 
             NaN             NaN             NaN
             NaN             NaN             NaN
             NaN             NaN             NaN
             NaN             NaN             NaN
             NaN             NaN             NaN
             NaN             NaN             NaN
             NaN             NaN             NaN
             NaN             NaN             NaN
             NaN             NaN             NaN
             NaN             NaN             NaN
             NaN             NaN             NaN
             NaN             NaN             NaN
             NaN             NaN             NaN
             NaN             NaN             NaN
             NaN             NaN             NaN
             NaN             NaN             NaN
             NaN             NaN             NaN
             NaN             NaN             NaN
             NaN             NaN             NaN
             NaN             NaN             NaN
             NaN             NaN             NaN
             NaN             NaN             NaN
             NaN             NaN             NaN
             NaN             NaN             NaN
             NaN             NaN             NaN
             NaN             NaN             NaN
             NaN             NaN             NaN
             NaN             NaN             NaN
             NaN             NaN             NaN
             NaN             NaN             NaN
             NaN             NaN             NaN
             NaN             NaN             NaN
             NaN             NaN             NaN
             NaN             NaN             NaN
             NaN             NaN             NaN
