Ca8 Cr4 Si6 O24                         
   1.00000000000000     
     7.7497133550372608   -0.3183860688908609    3.8037263025838413
     2.2270713136724538    7.1751979137710320    3.9301772878988204
    -0.5712941118365148   -0.3354667638220246    8.8964960970204849
   Ca   Cr   Si   O 
     8     4     6    24
Direct
  0.4892345729307408  0.5066927959885703  0.5204700338003505
  0.9919864828986533  0.9959689172136024  0.9899121350567555
  0.4084840796167271  0.7573029148368917  0.1142560204820029
  0.8255125186358825  0.6457770816125219  0.2581663483683556
  0.1522332896580139  0.3554749345289352  0.7592124937721323
  0.2948669179973322  0.9079211071734221  0.6117538340329247
  0.7403186923136928  0.0670444068680780  0.3783521153749660
  0.5615593244488437  0.2335538973916371  0.8994812284215925
  0.7511948797441121  0.5996869109299254  0.6784810503834038
  0.1308040678490059  0.1592940310790922  0.1654377739022053
  0.8699345062560013  0.8406210872682820  0.7865495796087387
  0.2566786842421607  0.3733828945417343  0.3483933135722097
  0.9135680287009862  0.2418717268207971  0.5667979404442605
  0.4876843397055879  0.0038336669448640  0.7592207907035728
  0.5092324696680208  0.9873167177323836  0.2536342651997003
  0.7765998746604907  0.4494079024196225  0.0114421422348769
  0.2244191929504140  0.5620751444638330  0.9633717872587511
  0.0789563743393984  0.7560764174945689  0.4354206075650708
  0.3523967008079438  0.5988802050243862  0.7696609129845484
  0.9161819191313754  0.2483473010833208  0.0652528007546351
  0.7599743958505414  0.4406954494871371  0.5562240269733394
  0.1116006677261225  0.9013029304012150  0.2439115127480136
  0.5026786234311515  0.7850038728437454  0.3763457883753603
  0.2850405690095599  0.9918916900943557  0.8532842740944204
  0.7148099598781243  0.9770926197642922  0.1578034139990976
  0.2357171490213901  0.5608019596643388  0.4446452161068635
  0.0344346250863339  0.7194787921673793  0.9871445587895877
  0.4715965500815429  0.2216806506356903  0.6787411702407127
  0.8586717860984834  0.0971936448862110  0.7555796448693002
  0.6729090147044232  0.5282815222225992  0.1729036043327170
  0.9200003297606472  0.1956599017706040  0.4062343627526843
  0.5729685311647401  0.8972802172025496  0.6198290185142810
  0.3893624888307841  0.0527751081155401  0.1271345268122417
  0.6570846188677066  0.4394232827921982  0.9144258237772576
  0.1960757514967923  0.3725038597974333  0.9929986433455724
  0.8943896692630915  0.7295748833658919  0.4553792592721138
  0.1016013915684226  0.2501471960112411  0.5666285960725403
  0.6083508850318040  0.9055261348846457  0.8936373871100827
  0.4352348633954009  0.1323949027463129  0.3571701475131661
  0.8874562337541647  0.5800802400952136  0.8420715982273492
  0.3079148960628189  0.5377224938656582  0.1113637474258340
  0.0796800833606142  0.8223585857693507  0.5806765047264548
 
  0.00000000E+00  0.00000000E+00  0.00000000E+00
  0.00000000E+00  0.00000000E+00  0.00000000E+00
  0.00000000E+00  0.00000000E+00  0.00000000E+00
  0.00000000E+00  0.00000000E+00  0.00000000E+00
  0.00000000E+00  0.00000000E+00  0.00000000E+00
  0.00000000E+00  0.00000000E+00  0.00000000E+00
  0.00000000E+00  0.00000000E+00  0.00000000E+00
  0.00000000E+00  0.00000000E+00  0.00000000E+00
  0.00000000E+00  0.00000000E+00  0.00000000E+00
  0.00000000E+00  0.00000000E+00  0.00000000E+00
  0.00000000E+00  0.00000000E+00  0.00000000E+00
  0.00000000E+00  0.00000000E+00  0.00000000E+00
  0.00000000E+00  0.00000000E+00  0.00000000E+00
  0.00000000E+00  0.00000000E+00  0.00000000E+00
  0.00000000E+00  0.00000000E+00  0.00000000E+00
  0.00000000E+00  0.00000000E+00  0.00000000E+00
  0.00000000E+00  0.00000000E+00  0.00000000E+00
  0.00000000E+00  0.00000000E+00  0.00000000E+00
  0.00000000E+00  0.00000000E+00  0.00000000E+00
  0.00000000E+00  0.00000000E+00  0.00000000E+00
  0.00000000E+00  0.00000000E+00  0.00000000E+00
  0.00000000E+00  0.00000000E+00  0.00000000E+00
  0.00000000E+00  0.00000000E+00  0.00000000E+00
  0.00000000E+00  0.00000000E+00  0.00000000E+00
  0.00000000E+00  0.00000000E+00  0.00000000E+00
  0.00000000E+00  0.00000000E+00  0.00000000E+00
  0.00000000E+00  0.00000000E+00  0.00000000E+00
  0.00000000E+00  0.00000000E+00  0.00000000E+00
  0.00000000E+00  0.00000000E+00  0.00000000E+00
  0.00000000E+00  0.00000000E+00  0.00000000E+00
  0.00000000E+00  0.00000000E+00  0.00000000E+00
  0.00000000E+00  0.00000000E+00  0.00000000E+00
  0.00000000E+00  0.00000000E+00  0.00000000E+00
  0.00000000E+00  0.00000000E+00  0.00000000E+00
  0.00000000E+00  0.00000000E+00  0.00000000E+00
  0.00000000E+00  0.00000000E+00  0.00000000E+00
  0.00000000E+00  0.00000000E+00  0.00000000E+00
  0.00000000E+00  0.00000000E+00  0.00000000E+00
  0.00000000E+00  0.00000000E+00  0.00000000E+00
  0.00000000E+00  0.00000000E+00  0.00000000E+00
  0.00000000E+00  0.00000000E+00  0.00000000E+00
  0.00000000E+00  0.00000000E+00  0.00000000E+00
