Ni4 P8 O24
1.0
-5.106318 -4.109000 2.762128
5.106318 -4.109000 -2.762128
5.106318 4.109000 7.063872
Ni P O
4 8 24
direct
0.000000 0.500000 0.000000 Ni2+
0.000000 1.000000 0.500000 Ni2+
0.194300 0.444300 0.750000 Ni2+
0.805700 0.555700 0.250000 Ni2+
0.006550 0.810120 0.802270 P5+
0.507850 0.204280 0.697730 P5+
0.993450 0.189880 0.197730 P5+
0.492150 0.795720 0.302270 P5+
0.272600 0.228150 0.023710 P5+
0.704440 0.248890 0.476290 P5+
0.727400 0.771850 0.976290 P5+
0.295560 0.751110 0.523710 P5+
0.810000 0.811400 0.844600 O2-
0.466800 0.965400 0.655400 O2-
0.190000 0.188600 0.155400 O2-
0.533200 0.034600 0.344600 O2-
0.220200 0.997400 0.934800 O2-
0.562600 0.285400 0.565200 O2-
0.779800 0.002600 0.065200 O2-
0.437400 0.714600 0.434800 O2-
0.961200 0.843000 0.650200 O2-
0.692800 0.311000 0.849800 O2-
0.038800 0.157000 0.349800 O2-
0.307200 0.689000 0.150200 O2-
0.038900 0.615700 0.822800 O2-
0.292900 0.216100 0.677200 O2-
0.961100 0.384300 0.177200 O2-
0.707100 0.783900 0.322800 O2-
0.126000 0.306500 0.916900 O2-
0.889600 0.209100 0.583100 O2-
0.874000 0.693500 0.083100 O2-
0.110400 0.790900 0.416900 O2-
0.489500 0.653500 0.906400 O2-
0.247100 0.583100 0.593600 O2-
0.510500 0.346500 0.093600 O2-
0.752900 0.416900 0.406400 O2-
