Fe14 Si2 O20                            
   1.00000000000000     
    21.4860313486034329   -0.0947914275468882   -2.9674671933704713
    -0.0111027942380916    2.9896496512584307   -0.0098094328562830
     0.0135737042868978   -0.0117257021239308    5.9660161345972744
   Fe   Si   O 
    14     2    20
Direct
  0.0542476003667667  0.7554316818546559  0.1489249912169045
  0.9441730868018106  0.2517720789134592  0.8549277654492615
  0.0535800291253439  0.7638923483714055  0.6611034758679749
  0.9479124957551509  0.2475507792921792  0.3492399541994174
  0.1611686811836029  0.2550395389861405  0.4571265654315849
  0.8391859246947755  0.7422324947128741  0.5371764749206903
  0.4478013313110821  0.7433112221551069  0.3605981616523907
  0.5535913605820139  0.2466633139900898  0.6444801269343357
  0.4496007272051976  0.7563406231616118  0.8466688825055628
  0.5541162466497863  0.2514515280104976  0.1563509093885395
  0.1961460491315234  0.7550555743617201  0.9741077090631143
  0.8031559248160933  0.2402028687728938  0.0228962580770294
  0.3409886506529615  0.2519217482751159  0.0415156358977997
  0.6587956009437322  0.7464956160815520  0.9493340982121804
  0.3095835772785730  0.7503284452929369  0.5300076669123220
  0.6921325927586498  0.2461868796694047  0.4673874256117959
  0.0458082291509585  0.2721951766078820  0.4001340894057432
  0.9474214511649953  0.7488901551252586  0.5819010826740093
  0.0411034857849587  0.2417806076222214  0.8999917200029028
  0.9563784980314782  0.7511068712814524  0.1232932623355901
  0.1464775632605669  0.7351913133019023  0.2126153726268661
  0.8503047385205929  0.2436926005696385  0.7810899054946983
  0.1512390018134249  0.7749871446078813  0.6845390544292834
  0.8536493474311778  0.2445058541670199  0.3064180883096735
  0.2476610124751398  0.2587372790717068  0.0086209533963687
  0.7518136267076972  0.7371658204083903  0.0036839589729666
  0.2704199908429073  0.2480435476870122  0.5071535167490052
  0.7325338966172330  0.7482964975102888  0.4864120303359258
  0.3499971404163233  0.7465144482956111  0.3175660430660827
  0.6536880351317719  0.2434007069389991  0.6807412352359837
  0.3468392472190917  0.7590429262672529  0.7847841012708047
  0.6521145604510706  0.2414544625165006  0.2186405681891424
  0.4441160082335069  0.2718556709667540  0.1018019840593265
  0.5595079136298605  0.7308169668012876  0.9013188558325960
  0.4524922122304888  0.2339536506890723  0.6044473576964715
  0.5402541616296851  0.7644915576622250  0.3930007185756474
 
  0.00000000E+00  0.00000000E+00  0.00000000E+00
  0.00000000E+00  0.00000000E+00  0.00000000E+00
  0.00000000E+00  0.00000000E+00  0.00000000E+00
  0.00000000E+00  0.00000000E+00  0.00000000E+00
  0.00000000E+00  0.00000000E+00  0.00000000E+00
  0.00000000E+00  0.00000000E+00  0.00000000E+00
  0.00000000E+00  0.00000000E+00  0.00000000E+00
  0.00000000E+00  0.00000000E+00  0.00000000E+00
  0.00000000E+00  0.00000000E+00  0.00000000E+00
  0.00000000E+00  0.00000000E+00  0.00000000E+00
  0.00000000E+00  0.00000000E+00  0.00000000E+00
  0.00000000E+00  0.00000000E+00  0.00000000E+00
  0.00000000E+00  0.00000000E+00  0.00000000E+00
  0.00000000E+00  0.00000000E+00  0.00000000E+00
  0.00000000E+00  0.00000000E+00  0.00000000E+00
  0.00000000E+00  0.00000000E+00  0.00000000E+00
  0.00000000E+00  0.00000000E+00  0.00000000E+00
  0.00000000E+00  0.00000000E+00  0.00000000E+00
  0.00000000E+00  0.00000000E+00  0.00000000E+00
  0.00000000E+00  0.00000000E+00  0.00000000E+00
  0.00000000E+00  0.00000000E+00  0.00000000E+00
  0.00000000E+00  0.00000000E+00  0.00000000E+00
  0.00000000E+00  0.00000000E+00  0.00000000E+00
  0.00000000E+00  0.00000000E+00  0.00000000E+00
  0.00000000E+00  0.00000000E+00  0.00000000E+00
  0.00000000E+00  0.00000000E+00  0.00000000E+00
  0.00000000E+00  0.00000000E+00  0.00000000E+00
  0.00000000E+00  0.00000000E+00  0.00000000E+00
  0.00000000E+00  0.00000000E+00  0.00000000E+00
  0.00000000E+00  0.00000000E+00  0.00000000E+00
  0.00000000E+00  0.00000000E+00  0.00000000E+00
  0.00000000E+00  0.00000000E+00  0.00000000E+00
  0.00000000E+00  0.00000000E+00  0.00000000E+00
  0.00000000E+00  0.00000000E+00  0.00000000E+00
  0.00000000E+00  0.00000000E+00  0.00000000E+00
  0.00000000E+00  0.00000000E+00  0.00000000E+00
