Calcium sulfide                         
   1.00000000000000     
     5.7035366418002909    0.0000000136029204    0.0000000609860081
     0.0000000132338178    5.7035371396573158    0.0000000095174012
     0.0000000602036883    0.0000000090974956    5.7035366212890208
   Ca   S 
     4     4
Direct
 -0.0000000099720610  0.0000000096539351  0.0000000072160078
  0.0000000123913383  0.4999999866953310  0.5000000019579864
  0.4999999792172857  0.0000000064475372  0.4999999958090106
  0.5000000017323010  0.4999999946721966  0.0000000148133836
  0.5000000023856284  0.5000000038490767  0.4999999880055251
  0.5000000045669097 -0.0000000016198520 -0.0000000056363871
  0.0000000082382396  0.5000000042374182  0.0000000038983728
  0.0000000014403584 -0.0000000039356428  0.4999999939361008
 
  0.00000000E+00  0.00000000E+00  0.00000000E+00
  0.00000000E+00  0.00000000E+00  0.00000000E+00
  0.00000000E+00  0.00000000E+00  0.00000000E+00
  0.00000000E+00  0.00000000E+00  0.00000000E+00
  0.00000000E+00  0.00000000E+00  0.00000000E+00
  0.00000000E+00  0.00000000E+00  0.00000000E+00
  0.00000000E+00  0.00000000E+00  0.00000000E+00
  0.00000000E+00  0.00000000E+00  0.00000000E+00
