Ca1 Mn4 S6 O24
1.0
7.664593 0.146117 5.006710
2.795939 6.872815 4.901226
0.610826 0.183704 9.007562
Ca Mn S O
1 4 6 24
direct
0.498922 0.493920 0.499184 Ca
0.646999 0.646930 0.646295 Mn
0.156065 0.147867 0.148907 Mn
0.838162 0.847630 0.846220 Mn
0.348079 0.347563 0.347765 Mn
0.952069 0.240117 0.539161 S
0.445646 0.056744 0.750944 S
0.549031 0.937666 0.244186 S
0.750787 0.461784 0.042770 S
0.244063 0.533466 0.951414 S
0.042764 0.755155 0.455922 S
0.373974 0.619375 0.743400 O
0.953109 0.343633 0.009648 O
0.748853 0.364241 0.621652 O
0.014973 0.966234 0.331414 O
0.641108 0.735560 0.364875 O
0.312306 0.015508 0.965101 O
0.682549 0.979257 0.029773 O
0.245800 0.630325 0.374745 O
0.041621 0.651825 0.985436 O
0.352892 0.257930 0.629821 O
0.980413 0.029055 0.663209 O
0.620552 0.375812 0.250633 O
0.985926 0.279849 0.337424 O
0.480342 0.908105 0.701148 O
0.367178 0.941525 0.281630 O
0.701243 0.485732 0.903608 O
0.291161 0.333124 0.964572 O
0.908331 0.707495 0.468802 O
0.086272 0.288625 0.525579 O
0.626692 0.055861 0.712499 O
0.516332 0.084683 0.294851 O
0.703046 0.662364 0.029331 O
0.295007 0.508602 0.090000 O
0.007580 0.716285 0.657931 O
