Ca2 Mn2 Si4 O12                         
   1.00000000000000     
    -0.0229493629323664   -0.0000000506049968    5.2614080054946406
    -4.8071694332870107    4.5607466203878735    1.2293865664947139
    -4.8071694556991318   -4.5607466745355190    1.2293866551987764
   Ca   Mn   Si   O 
     2     2     4    12
Direct
  0.7500006644171791  0.6970768971299037  0.3029227493678235
  0.2500006766331424  0.3029227494637112  0.6970768988466105
  0.7499996358695284  0.0949434470609702  0.9050563881584353
  0.2499996760647960  0.9050564371714316  0.0949434942474099
  0.7344499942560034  0.6204655005238209  0.8050821708868412
  0.7655493313698472  0.1949182441177300  0.3795341146142164
  0.2655493318324886  0.3795341469286413  0.1949182392801916
  0.2344499951760710  0.8050821690341081  0.6204655324823278
  0.6536793958670160  0.7867672501019882  0.9724373065407548
  0.8463213166380399  0.0275639634884257  0.2132317967674879
  0.3463213236323170  0.2132318284078636  0.0275639582342322
  0.1536794051725536  0.9724372988273871  0.7867672792496592
  0.8283837258450362  0.3936872242430454  0.8801767427271088
  0.6716160994137397  0.1198227111929953  0.6063122653786195
  0.1716161066736248  0.6063123036700588  0.1198227311172744
  0.3283837336268007  0.8801767622376815  0.3936872621206220
  0.4921294608706930  0.6309171529005084  0.6728591836790656
  0.0078703323448153  0.3271413664162139  0.3690833502608228
  0.5078703345907130  0.3690833719298681  0.3271413598324528
  0.9921294597056018  0.6728591751536470  0.6309171762080368
 
  0.00000000E+00  0.00000000E+00  0.00000000E+00
  0.00000000E+00  0.00000000E+00  0.00000000E+00
  0.00000000E+00  0.00000000E+00  0.00000000E+00
  0.00000000E+00  0.00000000E+00  0.00000000E+00
  0.00000000E+00  0.00000000E+00  0.00000000E+00
  0.00000000E+00  0.00000000E+00  0.00000000E+00
  0.00000000E+00  0.00000000E+00  0.00000000E+00
  0.00000000E+00  0.00000000E+00  0.00000000E+00
  0.00000000E+00  0.00000000E+00  0.00000000E+00
  0.00000000E+00  0.00000000E+00  0.00000000E+00
  0.00000000E+00  0.00000000E+00  0.00000000E+00
  0.00000000E+00  0.00000000E+00  0.00000000E+00
  0.00000000E+00  0.00000000E+00  0.00000000E+00
  0.00000000E+00  0.00000000E+00  0.00000000E+00
  0.00000000E+00  0.00000000E+00  0.00000000E+00
  0.00000000E+00  0.00000000E+00  0.00000000E+00
  0.00000000E+00  0.00000000E+00  0.00000000E+00
  0.00000000E+00  0.00000000E+00  0.00000000E+00
  0.00000000E+00  0.00000000E+00  0.00000000E+00
  0.00000000E+00  0.00000000E+00  0.00000000E+00
