Ca4 Si6 Ni4 O24                         
   1.00000000000000     
     7.5120855054076570    0.2252795400169052    4.5342264190752530
     2.6408859167374419    6.8741827896688301    4.5015545544785800
     0.1733378129013898    0.2800400281000041    8.7442436693937502
   Ca   Si   Ni   O 
     4     6     4    24
Direct
  0.5676628631178350  0.3898442901371071  0.5186531672252416
  0.3601960523013367  0.7777867157803450  0.0894235485157436
  0.8328545779481263  0.8750777273358123  0.2104322797130823
  0.2397592520706266  0.8701915234762496  0.6322987544676721
  0.9617790637042857  0.2643267943031927  0.5678046606120907
  0.5937934098724081  0.9404693622516157  0.6961129457378784
  0.4239972745652708  0.0522463850798278  0.2422525475509954
  0.7689435500068783  0.4550808420577936 -0.0003187815774353
  0.2369044471395598  0.5051669935373289  0.9939253268989692
  0.0460429956439145  0.7125263452871052  0.4972862827142605
  0.6194518212200552  0.6429969401458642  0.6411359437389419
  0.0826422192601375  0.1243611346544965  0.2256834714332525
  0.8475263316774545  0.8655922646026926  0.8522566124863679
  0.3782729185808585  0.3403835731615277  0.3423780214469025
  0.4373326662354471  0.5381997096533341  0.7524742183630239
  0.9876952721662798  0.2794443362162026  0.0417187897316492
  0.7773870707744776  0.5032521989490464  0.4986903040691370
  0.0314859433561446  0.9376437135670271  0.2572023321477310
  0.5471241672124202  0.8194011117911193  0.4285197797981775
  0.3919288074808130  0.0922293931769118  0.8353669624945058
  0.6428710256807373  0.9571401641383978  0.0308538777743102
  0.2526995152877063  0.4827427849233060  0.4863637936585310
  0.9826526731291257  0.6914898694487815  0.0086492604667057
  0.5410135119278748  0.1499486420954356  0.4770779730349080
  0.9338665098314857  0.0422582458288995  0.7946277178343887
  0.5547774927093241  0.4631703679356794  0.2187783405949977
  0.9257917289950982  0.2083819470902357  0.4031788009609921
  0.4514945388646420  0.8017398870640745  0.7710800743041037
  0.2762224131550410  0.9260111621397641  0.3052379944437567
  0.7441113003566049  0.4552002896940188  0.8146322479270472
  0.2463966667211542  0.2475285030404818  0.1029361934209018
  0.7799334763741514  0.7650485866024850  0.5580653819164721
  0.2301647299980673  0.2019644889351404  0.4561363393863845
  0.7228323265806970  0.0580341480284090  0.6817237353939068
  0.5476376207280069  0.1939601036607536  0.1933446157502443
  0.6955809539655077  0.7424195812821036  0.9162272797698687
  0.2574083548005380  0.5329634131871032  0.1742265756277578
  0.0285644565599456  0.7646764597403610  0.6785626301665513
 
  0.00000000E+00  0.00000000E+00  0.00000000E+00
  0.00000000E+00  0.00000000E+00  0.00000000E+00
  0.00000000E+00  0.00000000E+00  0.00000000E+00
  0.00000000E+00  0.00000000E+00  0.00000000E+00
  0.00000000E+00  0.00000000E+00  0.00000000E+00
  0.00000000E+00  0.00000000E+00  0.00000000E+00
  0.00000000E+00  0.00000000E+00  0.00000000E+00
  0.00000000E+00  0.00000000E+00  0.00000000E+00
  0.00000000E+00  0.00000000E+00  0.00000000E+00
  0.00000000E+00  0.00000000E+00  0.00000000E+00
  0.00000000E+00  0.00000000E+00  0.00000000E+00
  0.00000000E+00  0.00000000E+00  0.00000000E+00
  0.00000000E+00  0.00000000E+00  0.00000000E+00
  0.00000000E+00  0.00000000E+00  0.00000000E+00
  0.00000000E+00  0.00000000E+00  0.00000000E+00
  0.00000000E+00  0.00000000E+00  0.00000000E+00
  0.00000000E+00  0.00000000E+00  0.00000000E+00
  0.00000000E+00  0.00000000E+00  0.00000000E+00
  0.00000000E+00  0.00000000E+00  0.00000000E+00
  0.00000000E+00  0.00000000E+00  0.00000000E+00
  0.00000000E+00  0.00000000E+00  0.00000000E+00
  0.00000000E+00  0.00000000E+00  0.00000000E+00
  0.00000000E+00  0.00000000E+00  0.00000000E+00
  0.00000000E+00  0.00000000E+00  0.00000000E+00
  0.00000000E+00  0.00000000E+00  0.00000000E+00
  0.00000000E+00  0.00000000E+00  0.00000000E+00
  0.00000000E+00  0.00000000E+00  0.00000000E+00
  0.00000000E+00  0.00000000E+00  0.00000000E+00
  0.00000000E+00  0.00000000E+00  0.00000000E+00
  0.00000000E+00  0.00000000E+00  0.00000000E+00
  0.00000000E+00  0.00000000E+00  0.00000000E+00
  0.00000000E+00  0.00000000E+00  0.00000000E+00
  0.00000000E+00  0.00000000E+00  0.00000000E+00
  0.00000000E+00  0.00000000E+00  0.00000000E+00
  0.00000000E+00  0.00000000E+00  0.00000000E+00
  0.00000000E+00  0.00000000E+00  0.00000000E+00
  0.00000000E+00  0.00000000E+00  0.00000000E+00
  0.00000000E+00  0.00000000E+00  0.00000000E+00
