Ca2 Co2 Si4 O12                         
   1.00000000000000     
     0.0338368240693900   -0.0001252340981275    5.2547698638980069
    -4.7196569173754357    4.4235300114252256    1.2736239131686842
    -4.7198668482495760   -4.4235346175493797    1.2733324067750089
   Ca   Co   Si   O 
     2     2     4    12
Direct
  0.7500300640017897  0.7011765639342196  0.2988550057141846
  0.2500266143255754  0.2988450091690882  0.7011680022854534
  0.7500685770472116  0.0915918582283374  0.9083812863517808
  0.2501226356150074  0.9082842062784047  0.0916589529860106
  0.7341309338565304  0.6191660104888979  0.8056584268355372
  0.7658308039576983  0.1943383820210016  0.3808284324667473
  0.2658399945345467  0.3808232916766336  0.1943201044146384
  0.2341101881362463  0.8056849456168255  0.6191715687517877
  0.6532374177228131  0.7941959892864102  0.9689343220851859
  0.8467435604747959  0.0310609508167062  0.2057966200717453
  0.3467885289240043  0.2057913919825204  0.0310497405654444
  0.1532197315696800  0.9689482884581714  0.7941957867853918
  0.8221782298381591  0.3864250320023226  0.8894161079252779
  0.6777969571875836  0.1106011409088881  0.6135825860581384
  0.1777488665373927  0.6135758185365994  0.1105804350509249
  0.3221918365438806  0.8894451288285302  0.3864335724686639
  0.4969885981581073  0.6298808526020123  0.6670438485589286
  0.0029827842092725  0.3329406703854126  0.3701342252268702
  0.5029768579205427  0.3701633562168774  0.3329327207833632
  0.9969868194391694  0.6670611125621405  0.6298582546139251
 
  0.00000000E+00  0.00000000E+00  0.00000000E+00
  0.00000000E+00  0.00000000E+00  0.00000000E+00
  0.00000000E+00  0.00000000E+00  0.00000000E+00
  0.00000000E+00  0.00000000E+00  0.00000000E+00
  0.00000000E+00  0.00000000E+00  0.00000000E+00
  0.00000000E+00  0.00000000E+00  0.00000000E+00
  0.00000000E+00  0.00000000E+00  0.00000000E+00
  0.00000000E+00  0.00000000E+00  0.00000000E+00
  0.00000000E+00  0.00000000E+00  0.00000000E+00
  0.00000000E+00  0.00000000E+00  0.00000000E+00
  0.00000000E+00  0.00000000E+00  0.00000000E+00
  0.00000000E+00  0.00000000E+00  0.00000000E+00
  0.00000000E+00  0.00000000E+00  0.00000000E+00
  0.00000000E+00  0.00000000E+00  0.00000000E+00
  0.00000000E+00  0.00000000E+00  0.00000000E+00
  0.00000000E+00  0.00000000E+00  0.00000000E+00
  0.00000000E+00  0.00000000E+00  0.00000000E+00
  0.00000000E+00  0.00000000E+00  0.00000000E+00
  0.00000000E+00  0.00000000E+00  0.00000000E+00
  0.00000000E+00  0.00000000E+00  0.00000000E+00
