Ti24 S12                                
   1.00000000000000     
    11.4645150152550919   -0.0036396605118940   -0.0000004642975483
     0.0044348684328358   14.1458324404829021   -0.0000046904576643
    -0.0000004769171563    0.0000013313479011    3.3786717141837053
   Ti   S 
    24    12
Direct
  0.6530595225269216  0.4779991492214072  0.5000000524141542
  0.3473463263816980  0.5221097558560835  0.5000000398096769
  0.1526440474257057  0.0219718952430746  0.9999996892112050
  0.8468546670655287  0.9778777266953470 -0.0000000862648892
  0.5884145742975867  0.2447313881480289  0.4999997704396670
  0.4116888798207533  0.7554578647982543  0.4999999028320075
  0.0884145746165025  0.2553041085767407  0.9999994219938487
  0.9116915730519792  0.7445896630286291 -0.0000000755059355
  0.0897026317000244  0.4208461587963115  0.4999999618833906
  0.9103012496660329  0.5791734907021651  0.4999999841252823
  0.5895776904360021  0.0791491872030169  0.0000001270781413
  0.4101927436702447  0.9208110423927912  0.0000000100372678
  0.9701694143788545  0.1085305010733212  0.5000006591549891
  0.0296692137114782  0.8904465472923188  0.4999999372676056
  0.4704687444310430  0.3912973408797938  0.0000002298502885
  0.5298882555879396  0.6094699034541550  0.0000001338423088
  0.3082702891748962  0.2929111341871015  0.5000007318199907
  0.6916009955248869  0.7071296772172699  0.4999999560775258
  0.8083153819653618  0.2070858365957758  0.9999994248942715
  0.1916403065294456  0.7928736512479621  0.0000000867062348
  0.3813415080597992  0.0762231350712513  0.4999999296043846
  0.6185638658319405  0.9238443391548594  0.4999997957322802
  0.8814610280679445  0.4238266624417777  0.9999999901693808
  0.1186685107075067  0.5762081686607872  0.0000001285077716
  0.9331545762552809  0.2928143456392684  0.4999996914610304
  0.0669451925657508  0.7069419439209219  0.4999999820941526
  0.4331008632219887  0.2071795375147405  0.0000001963538693
  0.5668944339465729  0.7930669034317157  0.9999999612907561
  0.7475652787235726  0.0865477829770123  0.5000000310560736
  0.2521941983054712  0.9134517203204832  0.4999999503394309
  0.2478235800279111  0.4135593279308844  0.0000001755139495
  0.7523903700744817  0.5866486435684021  0.9999999694783316
  0.1855720481102917  0.1498665064881698  0.5000001990625684
  0.8142438671195158  0.8499495250711554  0.5000002145974065
  0.6857669515867614  0.3500914015790026 -0.0000001579783629
  0.3144026454323250  0.6500140336200134 -0.0000000149500550
 
  0.00000000E+00  0.00000000E+00  0.00000000E+00
  0.00000000E+00  0.00000000E+00  0.00000000E+00
  0.00000000E+00  0.00000000E+00  0.00000000E+00
  0.00000000E+00  0.00000000E+00  0.00000000E+00
  0.00000000E+00  0.00000000E+00  0.00000000E+00
  0.00000000E+00  0.00000000E+00  0.00000000E+00
  0.00000000E+00  0.00000000E+00  0.00000000E+00
  0.00000000E+00  0.00000000E+00  0.00000000E+00
  0.00000000E+00  0.00000000E+00  0.00000000E+00
  0.00000000E+00  0.00000000E+00  0.00000000E+00
  0.00000000E+00  0.00000000E+00  0.00000000E+00
  0.00000000E+00  0.00000000E+00  0.00000000E+00
  0.00000000E+00  0.00000000E+00  0.00000000E+00
  0.00000000E+00  0.00000000E+00  0.00000000E+00
  0.00000000E+00  0.00000000E+00  0.00000000E+00
  0.00000000E+00  0.00000000E+00  0.00000000E+00
  0.00000000E+00  0.00000000E+00  0.00000000E+00
  0.00000000E+00  0.00000000E+00  0.00000000E+00
  0.00000000E+00  0.00000000E+00  0.00000000E+00
  0.00000000E+00  0.00000000E+00  0.00000000E+00
  0.00000000E+00  0.00000000E+00  0.00000000E+00
  0.00000000E+00  0.00000000E+00  0.00000000E+00
  0.00000000E+00  0.00000000E+00  0.00000000E+00
  0.00000000E+00  0.00000000E+00  0.00000000E+00
  0.00000000E+00  0.00000000E+00  0.00000000E+00
  0.00000000E+00  0.00000000E+00  0.00000000E+00
  0.00000000E+00  0.00000000E+00  0.00000000E+00
  0.00000000E+00  0.00000000E+00  0.00000000E+00
  0.00000000E+00  0.00000000E+00  0.00000000E+00
  0.00000000E+00  0.00000000E+00  0.00000000E+00
  0.00000000E+00  0.00000000E+00  0.00000000E+00
  0.00000000E+00  0.00000000E+00  0.00000000E+00
  0.00000000E+00  0.00000000E+00  0.00000000E+00
  0.00000000E+00  0.00000000E+00  0.00000000E+00
  0.00000000E+00  0.00000000E+00  0.00000000E+00
  0.00000000E+00  0.00000000E+00  0.00000000E+00
