Ca1 Mn4 P6 O24                          
   1.00000000000000     
     2.7552150000000002    6.8878519999999996    4.2968130000000002
     0.6531709999999999    0.3664260000000000    8.5331840000000003
     7.4429780000000001    0.2873100000000000    4.2148050000000001
   Ca   Mn   P    O 
     1     4     6    24
Direct
  0.4248003306302869  0.5817079058493622  0.4911778964852481
  0.6363938463995666  0.6481984454691819  0.6464498559705467
  0.1396448927213041  0.1545518972943804  0.1432730573060918
  0.8506182354335230  0.8528861426456137  0.8526935959438904
  0.3520693373141640  0.3512928958715575  0.3614062529068049
  0.2438004600092480  0.5302993601474228  0.9661415429641058
  0.0159497363811291  0.7581529724912225  0.4695088633106512
  0.9641058064006355  0.2517475315989328  0.5257325268150006
  0.4559581999266024  0.0347587288848185  0.7547678734362472
  0.5402206147513846  0.9744065899927978  0.2405389764657523
  0.7406859244327558  0.4735442313611757  0.0435848093232588
  0.6058521202166068  0.7597317069645174  0.3938291919839624
  0.3032477048814370  0.0118569190152067  0.9675515295074291
  0.3967326830734912  0.6050686569318106  0.7588184825232828
  0.9470067274754425  0.3077778242070780  0.0230016485266794
  0.7577005938099877  0.3979381120889105  0.6106895696600261
  0.0060244099530237  0.9710240993160151  0.3308167979625722
  0.9847162184606969  0.0338132686813054  0.6620738917180803
  0.5840713662558696  0.4107375468272106  0.2523416077707398
  0.6931298189033973  0.9949236151352087  0.0290389260209530
  0.2198682804174608  0.6114603976061830  0.3809969570220566
  0.0393072129713702  0.6963284023109917  0.9797430369479236
  0.3848949987806266  0.2516315295773349  0.6066202152643405
  0.2641782504767998  0.3432071678865061  0.9599639809977899
  0.8553072798631091  0.7188700707745814  0.4873286187009582
  0.9831001030104374  0.2987482668743804  0.3155089067312526
  0.4735924751303790  0.8866850658990262  0.6945945603232512
  0.3382291575505126  0.9917485966387847  0.2672407605767675
  0.6839421127604361  0.5149226019971773  0.8808516811844389
  0.3036380162185034  0.4826237098650988  0.1274720995403953
  0.0171030574406185  0.7056977928724796  0.6739854395183382
  0.1290086686206441  0.2843041267964895  0.5139271199934835
  0.6604875541165612  0.0052792023658493  0.7305779145451120
  0.5231379118283394  0.1216868572785585  0.3006316702478677
  0.7260324555166773  0.6641638459206514  0.0371303275899224
 
             NaN             NaN             NaN
             NaN             NaN             NaN
             NaN             NaN             NaN
             NaN             NaN             NaN
             NaN             NaN             NaN
             NaN             NaN             NaN
             NaN             NaN             NaN
             NaN             NaN             NaN
             NaN             NaN             NaN
             NaN             NaN             NaN
             NaN             NaN             NaN
             NaN             NaN             NaN
             NaN             NaN             NaN
             NaN             NaN             NaN
             NaN             NaN             NaN
             NaN             NaN             NaN
             NaN             NaN             NaN
             NaN             NaN             NaN
             NaN             NaN             NaN
             NaN             NaN             NaN
             NaN             NaN             NaN
             NaN             NaN             NaN
             NaN             NaN             NaN
             NaN             NaN             NaN
             NaN             NaN             NaN
             NaN             NaN             NaN
             NaN             NaN             NaN
             NaN             NaN             NaN
             NaN             NaN             NaN
             NaN             NaN             NaN
             NaN             NaN             NaN
             NaN             NaN             NaN
             NaN             NaN             NaN
             NaN             NaN             NaN
             NaN             NaN             NaN
