Ca1 Mn4 P6 O24
1.0
2.755215 6.887852 4.296813
0.653171 0.366426 8.533184
7.442978 0.287310 4.214805
Ca Mn P O
1 4 6 24
direct
0.435576 0.585220 0.515009 Ca
0.642514 0.645694 0.642038 Mn
0.142172 0.148799 0.142735 Mn
0.849369 0.847260 0.853141 Mn
0.354744 0.349389 0.354756 Mn
0.248326 0.527635 0.960982 P
0.027475 0.748925 0.468177 P
0.965730 0.247974 0.525992 P
0.459012 0.029761 0.752839 P
0.537229 0.967703 0.240790 P
0.746249 0.466074 0.037218 P
0.605379 0.756736 0.393548 O
0.305804 0.011823 0.962983 O
0.401827 0.598107 0.753228 O
0.952209 0.305829 0.021077 O
0.768398 0.401144 0.603752 O
0.023166 0.956407 0.322510 O
0.975497 0.037360 0.673822 O
0.591162 0.399811 0.242265 O
0.690085 0.984384 0.031348 O
0.224685 0.594087 0.392697 O
0.043633 0.689389 0.972021 O
0.389475 0.240361 0.601829 O
0.267061 0.336949 0.967749 O
0.860668 0.718531 0.490657 O
0.975502 0.286359 0.323332 O
0.478886 0.876267 0.697885 O
0.335671 0.987882 0.267451 O
0.694797 0.502499 0.874758 O
0.299802 0.493408 0.121866 O
0.019397 0.710121 0.670978 O
0.133856 0.276637 0.503942 O
0.659538 0.005681 0.729809 O
0.516423 0.120980 0.295618 O
0.728739 0.657270 0.028713 O
