Ca2 Co4 S6 O24                          
   1.00000000000000     
     7.6034329999999999    0.0502210000000000    4.4829100000000004
     2.6106449999999999    7.0504519999999999    4.4941160000000000
     0.1570170000000000    0.0155560000000000    8.8061889999999998
   Ca   Co   S    O 
     2     4     6    24
Direct
  0.4914270100079846  0.5091594757109921  0.4985048569178350
  0.9907825378556308  0.0075529149580638  0.9984538316180819
  0.6464644777358398  0.6454357741210606  0.6518291535080462
  0.1469141024426136  0.1478088393768150  0.1466841645653093
  0.8409480811520309  0.8628769460276241  0.8484879816228444
  0.3392874260169726  0.3625367163332813  0.3516569381237152
  0.9503278085154637  0.2553414971480567  0.5464737222245031
  0.4475474157971476  0.0535862989879194  0.7491767103380568
  0.5365445328584574  0.9564058030482150  0.2498069487006274
  0.7427629265695046  0.4560312017850725  0.0431292240583049
  0.2414554243127766  0.5532825314178104  0.9555698937644054
  0.0374747568788273  0.7571587795438536  0.4529699575757796
  0.4109487896382141  0.5539732172554666  0.7798792090426638
  0.8925417878220175  0.2685076979092010  0.0878344065247797
  0.7717963542435724  0.4216701255096577  0.5449097120783299
  0.0724492858942503  0.9058126723450435  0.2626548031993162
  0.5478686591163185  0.7837846350927021  0.4215465843460858
  0.2563408620308314  0.0906538505416002  0.8964581859196983
  0.7257900954934776  0.9235592582650120  0.0987342998153809
  0.2151271636692995  0.5899527065099062  0.4516661748746704
  0.0903198130361006  0.7409566577683068  0.9151775565629930
  0.4428444232610668  0.2264120981718445  0.5766635475729989
  0.9116990185620075  0.1064220888604757  0.7357491902485457
  0.5728818528450864  0.4602369810639600  0.2182218229003995
  1.0046845657869419  0.1889531566099120  0.3995706455320556
  0.4858717900970764  0.8900134087364140  0.7143582750117569
  0.3955292772214643  0.9753870383807970  0.1959102144774396
  0.7022738383884750  0.4670802788618194  0.8957499950551461
  0.1836464857958586  0.4023716151832098  1.0011294149010486
  0.8876585444776881  0.7081164965424344  0.4827387213887654
  0.0949817369108828  0.3062929934221563  0.5256813645593903
  0.5878163351708093  0.0281409013704255  0.8084352104920367
  0.4951673955641042  0.1221010249829481  0.2829987945089103
  0.8031874363845661  0.6082787745958032  0.9872497604800257
  0.2807804443530352  0.5350192936093994  0.1068868850291706
 -0.0060722694326329  0.8244985207346357  0.5955143319549272
 
             NaN             NaN             NaN
             NaN             NaN             NaN
             NaN             NaN             NaN
             NaN             NaN             NaN
             NaN             NaN             NaN
             NaN             NaN             NaN
             NaN             NaN             NaN
             NaN             NaN             NaN
             NaN             NaN             NaN
             NaN             NaN             NaN
             NaN             NaN             NaN
             NaN             NaN             NaN
             NaN             NaN             NaN
             NaN             NaN             NaN
             NaN             NaN             NaN
             NaN             NaN             NaN
             NaN             NaN             NaN
             NaN             NaN             NaN
             NaN             NaN             NaN
             NaN             NaN             NaN
             NaN             NaN             NaN
             NaN             NaN             NaN
             NaN             NaN             NaN
             NaN             NaN             NaN
             NaN             NaN             NaN
             NaN             NaN             NaN
             NaN             NaN             NaN
             NaN             NaN             NaN
             NaN             NaN             NaN
             NaN             NaN             NaN
             NaN             NaN             NaN
             NaN             NaN             NaN
             NaN             NaN             NaN
             NaN             NaN             NaN
             NaN             NaN             NaN
             NaN             NaN             NaN
