Ca2 Co4 S6 O24                          
   1.00000000000000     
     7.6034329999999999    0.0502210000000000    4.4829100000000004
     2.6106449999999999    7.0504519999999999    4.4941160000000000
     0.1570170000000000    0.0155560000000000    8.8061889999999998
   Ca   Co   S    O 
     2     4     6    24
Direct
  0.4830119022800827  0.5189404607738808  0.4988138520605764
  0.9915152109535801  0.0109793488432920 -0.0064160046591273
  0.6400046753957248  0.6509657479849482  0.6534473650212907
  0.1424138699942504  0.1519817158627680  0.1472063835469481
  0.8447228430769432  0.8567694861129223  0.8492448145193915
  0.3451275474638721  0.3578908174546714  0.3512722860636083
  0.9471133208986051  0.2562412607501979  0.5440240250764912
  0.4453657872962626  0.0525102859216666  0.7505417565731716
  0.5406973250045898  0.9590585391379632  0.2481828132278708
  0.7435119005790434  0.4553589735419575  0.0466642114501617
  0.2417876766120920  0.5538571061785589  0.9550652501841899
  0.0373572305919172  0.7562484955780708  0.4526589304113319
  0.4130430598534457  0.5537636959475537  0.7801285957942216
  0.8894449786211983  0.2652304278727848  0.0924246276581036
  0.7717577824307308  0.4266356473187196  0.5453270214834427
  0.0747995439927471  0.9035384311786172  0.2622915953060539
  0.5440477927977438  0.7883631342496364  0.4218600748574335
  0.2542750263859677  0.0946401588042528  0.8977863458800355
  0.7298084117466536  0.9181582890002623  0.0988326600247919
  0.2118786659601778  0.5845399533907512  0.4504128994223304
  0.0938277746095463  0.7433868643226345  0.9125818130080245
  0.4472017314904470  0.2259730798716866  0.5791730127634653
  0.9080964464577318  0.1058166159129377  0.7325691610267696
  0.5720462164539851  0.4621996730931680  0.2203556525376895
  0.9902899377855351  0.1949974158805155  0.3970491352314323
  0.4705167241795083  0.8959352231320222  0.7122263769523133
  0.3939418706801303 -0.0098278276361448  0.1949076554581837
  0.7043489638453702  0.4726888369324673  0.8958342269810943
  0.1831376594273168  0.4052569174862544  0.9966434928418626
  0.8800816729049640  0.7158842710337540  0.4865872148177256
  0.1004154604847393  0.2966162164641868  0.5201853896803224
  0.5891675230974749  1.0099633576108280  0.8139861407833353
  0.5131107184993629  0.1209648553600953  0.2795522124593340
  0.8077902720922859  0.6031216805346246 -0.0033758174165529
  0.2796285785094388  0.5312973019890199  0.1087343616337614
  0.0046332246858257  0.8186586466992972  0.5947736932334706
 
             NaN             NaN             NaN
             NaN             NaN             NaN
             NaN             NaN             NaN
             NaN             NaN             NaN
             NaN             NaN             NaN
             NaN             NaN             NaN
             NaN             NaN             NaN
             NaN             NaN             NaN
             NaN             NaN             NaN
             NaN             NaN             NaN
             NaN             NaN             NaN
             NaN             NaN             NaN
             NaN             NaN             NaN
             NaN             NaN             NaN
             NaN             NaN             NaN
             NaN             NaN             NaN
             NaN             NaN             NaN
             NaN             NaN             NaN
             NaN             NaN             NaN
             NaN             NaN             NaN
             NaN             NaN             NaN
             NaN             NaN             NaN
             NaN             NaN             NaN
             NaN             NaN             NaN
             NaN             NaN             NaN
             NaN             NaN             NaN
             NaN             NaN             NaN
             NaN             NaN             NaN
             NaN             NaN             NaN
             NaN             NaN             NaN
             NaN             NaN             NaN
             NaN             NaN             NaN
             NaN             NaN             NaN
             NaN             NaN             NaN
             NaN             NaN             NaN
             NaN             NaN             NaN
