Ca4 V16 P24 O96                         
   1.00000000000000     
    -4.5977139999999999    6.9547809999999997    8.6812780000000007
     5.0963459999999996   -6.6448410000000004    8.7100439999999999
     9.8109509999999993    6.9651389999999997    0.2776000000000000
   Ca   V    P    O 
     4    16    24    96
Direct
  0.5488785110663520  0.7171329581355199  0.4272991924626924
  0.5028424624640753  0.9970362372911236  0.9914706828333805
  0.9933918871292935  0.0001661819698865  0.4975393397046359
  0.0125524780359494  0.4854115064673490  0.9973992642375044
  0.6427782570979739  0.6321461014157815  0.6500268426231847
  0.6434231940655448  0.1476802399365068  0.1424693014369277
  0.1430290265920934  0.1462486867144575  0.6426671821245310
  0.1431230744364276  0.6468466949817768  0.1425590367065656
  0.1387228110870228  0.1457990183978587  0.1399793900504771
  0.1355329791941249  0.6419335138376880  0.6420051059359063
  0.6422765157459911  0.6421066954301843  0.1353187896769120
  0.6367220322274656  0.1408740911293921  0.6405190446410234
  0.8500531799142943  0.8531045797247891  0.8547486571659602
  0.8574993976512434  0.3482747212689468  0.3559785136408731
  0.3517702787082183  0.3542434701515241  0.8556072886573685
  0.3477015450418084  0.8632343989220106  0.3496612644445561
  0.3576270837431787  0.3566815520007635  0.3579070594919576
  0.3461368279139575  0.8512791752706691  0.8539844608950314
  0.8555287627891500  0.8461385414743484  0.3518588547399834
  0.8520066005863172  0.3479404601507149  0.8552806339546215
  0.3849314088067053  0.7414383264576726  0.6105280348367471
  0.3893575026066233  0.2473973567182296  0.1068540009213510
  0.8851297267040914  0.2421283327006417  0.6068105132349252
  0.8918288827679123  0.7467593562500526  0.1015874706007994
  0.3914986450168363  0.6061531286754467  0.2489794498713375
  0.3874521069252174  0.1066870510358393  0.7522428265252499
  0.8905807111121606  0.1044457421028532  0.2521202949629957
  0.8888769845873760  0.6059323203701590  0.7586023418427305
  0.6080435213055394  0.3838180924526203  0.7488095983203701
  0.6069393225011054  0.8909315859347016  0.2357438901964755
  0.1021660857371151  0.8891820883217177  0.7411409981115420
  0.1074605982691018  0.3885684010391641  0.2441691432632824
  0.2462027442586171  0.3902532550219761  0.6063809895917672
  0.2444402008703555  0.8932708126520101  0.1038762497110735
  0.7384478146963565  0.8841617898261377  0.6024254333159558
  0.7541885103526904  0.3883582366707399  0.1083312369643038
  0.7563997382970351  0.6002050905611125  0.3897237471753273
  0.7458184114689321  0.1032412559359453  0.8875771887827671
  0.2419270825599024  0.1104663324804155  0.3903462916883718
  0.2463639987306293  0.6045384425622552  0.8888809876519868
  0.6070686589590630  0.2510984380164949  0.3888687518780561
  0.6056131859989736  0.7540935642308573  0.8936966665067322
  0.1056599130513906  0.7467422591503923  0.3925636099985748
  0.1077806529240695  0.2494515161651955  0.8910949965053354
  0.6833608062570791  0.5847878172463713  0.4956287396081785
  0.6788051295339219  0.0813259726701054  0.9975412720540154
  0.1728097045483293  0.0797215046611611  0.4958684307902556
  0.1799510110305990  0.5795181798101660  0.9983099961781793
  0.1630832689577940  0.4840518970449973  0.6293561979690900
  0.1625449031991545  0.9872928388154470  0.1270826824696181
  0.6600018303563362  0.9832849891520344  0.6213005935361399
  0.6767546352103585  0.4860795948621993  0.1328554069380753
  0.4896675331159701  0.6654911591717075  0.5991255177363992
  0.4932195511954250  0.1741877239007988  0.0784924763035020
  0.9925366282058610  0.1744804958909725  0.5812979682757460
  0.9942488575280370  0.6702202537598053  0.0782716251507378
  0.6245812738939768  0.1657588491243876  0.4827989138380664
  0.6207909215111822  0.6598007706905888  0.9809011504281064
  0.1183523881524391  0.6583884740981172  0.4840400408228353
  0.1297719663953671  0.1633439313603327  0.9837173217344435
  0.5920809585587874  0.4985655374697560  0.6885026972508901
  0.5832512338564007  0.9999865784481095  0.1721980546452377
  0.0791594767708507  0.0002017390637358  0.6772102994943018
  0.0842365783753181  0.5004031163094188  0.1810878551611090
  0.4937539085876539  0.6222613865592475  0.1695343288863488
  0.4867695153513595  0.1317244224287157  0.6707413725941823
  0.9884679001086534  0.1271736372671483  0.1699754824110308
  0.9869838462593445  0.6329268186073228  0.6770409308576768
  0.5096085562841771  0.3640144841355012  0.8261880204805307
  0.5112016032754053  0.8734701730393730  0.3224953135156237
  0.0045316772926478  0.8641245956967690  0.8200254852806698
  0.0144855772153776  0.3644719040428180  0.3289723099421898
  0.4959366601142269  0.3147270609175526  0.4067826917640591
  0.4940137984773217  0.8179329559117172  0.9149611525401565
  0.0020120958010420  0.8222482648136272  0.4147315437692252
  0.9960107680623163  0.3124819279506005  0.9149215448421714
  0.8378447183920767  0.5067216696077769  0.3655710486764367
  0.8290790878772932  0.0094792762141181  0.8610889354685775
  0.3234952602604967  0.0080962915197817  0.3699272014910959
  0.3318380139626753  0.5119641299403923  0.8649776558720619
  0.4096468288931445  0.5014787707741947  0.3188781576155723
  0.4143199462958889  0.9976921363378414  0.8166875107210340
  0.9131033973122569  0.9936838555486417  0.3166999978060976
  0.9174289970712818  0.4966949875802895  0.8215297443531135
  0.3866552787660456  0.8172119362708283  0.5051076764951759
  0.3682177496034348  0.3279725494037370  0.0062940536699514
  0.8652621609919202  0.3245665114421811  0.5080176982876706
  0.8775979915720287  0.8337418553977157  0.0076067831919120
  0.3143515539260061  0.4116176090958270  0.5000403501221581
  0.3167061752804598  0.9185334136428218  0.9984757661178061
  0.8194255772810912  0.9087505398414629  0.5023075594787740
  0.8275848566705981  0.4129144281367304  0.0038746465011332
  0.2875516377319736  0.6652766431037475  0.6194249120555387
  0.2935266325006919  0.1675310047398563  0.1234450762321391
  0.7944397730139880  0.1571396022042956  0.6198174803741633
  0.7935067273963355  0.6700676311374918  0.1131567736441646
  0.7895255840173618  0.5964171129630895  0.6856394512279962
  0.7872388741622033  0.0991353930692438  0.1852234946196453
  0.2867070066252048  0.0955093508995462  0.6812970667270031
  0.2885926324392457  0.6033479620133846  0.1810890327530454
  0.6280976402260314  0.3005813460799605  0.6593786545476110
  0.6134145056686460  0.8023478931746110  0.1494429390910773
  0.1190863156055765  0.8041712757109986  0.6515608341901634
  0.1140427910276735  0.3058084101891514  0.1504980347574834
  0.6720357737862184  0.7823116459705239  0.5776980855473788
  0.6847064176366845  0.2880548609995496  0.0908205812686076
  0.1794615388921403  0.2838196499466866  0.5939008421145180
  0.1808944336407494  0.7871672932018993  0.0900316967378755
  0.6714260725814901  0.6295266241782966  0.2998436170904890
  0.6584678686601112  0.1192148050495733  0.7999802548513024
  0.1594549704945611  0.1249833852763845  0.2989718118309056
  0.1597328255602409  0.6227392236662442  0.8012911788211049
  0.6070046210990958  0.7026406771962826  0.7808528709400230
  0.5977969439155651  0.1864166304144851  0.2807423492826148
  0.0988193769714475  0.1879960327217711  0.7846422460882032
  0.0959095257263453  0.6893637900382773  0.2829793956061439
  0.4048795007861803  0.3128555450693398  0.2079431864273730
  0.3920516470208131  0.8120365131153741  0.7105170812315941
  0.9054396535603423  0.8063754021210070  0.2087119719697697
  0.8956976323974492  0.3088952669124448  0.7093992846481615
  0.3850895808589629  0.7019158274136975  0.3290733994324361
  0.3695240761389504  0.1937183483776553  0.8386048571943104
  0.8798876693453399  0.1889571956709182  0.3422024203829724
  0.8668557275259701  0.6926976012674866  0.8450229103226762
  0.2164328961411194  0.3918997630719395  0.3041646589455272
  0.2058360605917787  0.8987675443025869  0.8104786351439194
  0.7112303018707810  0.8900486647495243  0.3043519357142087
  0.7116674493866175  0.3943929916667129  0.8186399166450952
  0.8114368275110719  0.8581098289324651  0.7026096636120676
  0.8369601790564862  0.3631778974310881  0.2014627728810805
  0.3251457778828363  0.3668886068657561  0.7022177705071792
  0.3297374017251539  0.8742841442542048  0.1949352965425982
  0.3113462565511669  0.2085377860092325  0.4033967922984467
  0.3093508996992380  0.7108547418337625  0.9028630189985397
  0.8228178675571407  0.7064727534615994  0.4017968030709115
  0.8117775838405977  0.2067433349355016  0.9009585738787816
  0.6971282832004804  0.3341658343951638  0.3721994665146816
  0.6922284947829340  0.8426036070350622  0.8966591491552578
  0.2003082304431406  0.8269832722841206  0.3831188591220129
  0.1905602127176327  0.3420312008881098  0.8824494091269378
 
             NaN             NaN             NaN
             NaN             NaN             NaN
             NaN             NaN             NaN
             NaN             NaN             NaN
             NaN             NaN             NaN
             NaN             NaN             NaN
             NaN             NaN             NaN
             NaN             NaN             NaN
             NaN             NaN             NaN
             NaN             NaN             NaN
             NaN             NaN             NaN
             NaN             NaN             NaN
             NaN             NaN             NaN
             NaN             NaN             NaN
             NaN             NaN             NaN
             NaN             NaN             NaN
             NaN             NaN             NaN
             NaN             NaN             NaN
             NaN             NaN             NaN
             NaN             NaN             NaN
             NaN             NaN             NaN
             NaN             NaN             NaN
             NaN             NaN             NaN
             NaN             NaN             NaN
             NaN             NaN             NaN
             NaN             NaN             NaN
             NaN             NaN             NaN
             NaN             NaN             NaN
             NaN             NaN             NaN
             NaN             NaN             NaN
             NaN             NaN             NaN
             NaN             NaN             NaN
             NaN             NaN             NaN
             NaN             NaN             NaN
             NaN             NaN             NaN
             NaN             NaN             NaN
             NaN             NaN             NaN
             NaN             NaN             NaN
             NaN             NaN             NaN
             NaN             NaN             NaN
             NaN             NaN             NaN
             NaN             NaN             NaN
             NaN             NaN             NaN
             NaN             NaN             NaN
             NaN             NaN             NaN
             NaN             NaN             NaN
             NaN             NaN             NaN
             NaN             NaN             NaN
             NaN             NaN             NaN
             NaN             NaN             NaN
             NaN             NaN             NaN
             NaN             NaN             NaN
             NaN             NaN             NaN
             NaN             NaN             NaN
             NaN             NaN             NaN
             NaN             NaN             NaN
             NaN             NaN             NaN
             NaN             NaN             NaN
             NaN             NaN             NaN
             NaN             NaN             NaN
             NaN             NaN             NaN
             NaN             NaN             NaN
             NaN             NaN             NaN
             NaN             NaN             NaN
             NaN             NaN             NaN
             NaN             NaN             NaN
             NaN             NaN             NaN
             NaN             NaN             NaN
             NaN             NaN             NaN
             NaN             NaN             NaN
             NaN             NaN             NaN
             NaN             NaN             NaN
             NaN             NaN             NaN
             NaN             NaN             NaN
             NaN             NaN             NaN
             NaN             NaN             NaN
             NaN             NaN             NaN
             NaN             NaN             NaN
             NaN             NaN             NaN
             NaN             NaN             NaN
             NaN             NaN             NaN
             NaN             NaN             NaN
             NaN             NaN             NaN
             NaN             NaN             NaN
             NaN             NaN             NaN
             NaN             NaN             NaN
             NaN             NaN             NaN
             NaN             NaN             NaN
             NaN             NaN             NaN
             NaN             NaN             NaN
             NaN             NaN             NaN
             NaN             NaN             NaN
             NaN             NaN             NaN
             NaN             NaN             NaN
             NaN             NaN             NaN
             NaN             NaN             NaN
             NaN             NaN             NaN
             NaN             NaN             NaN
             NaN             NaN             NaN
             NaN             NaN             NaN
             NaN             NaN             NaN
             NaN             NaN             NaN
             NaN             NaN             NaN
             NaN             NaN             NaN
             NaN             NaN             NaN
             NaN             NaN             NaN
             NaN             NaN             NaN
             NaN             NaN             NaN
             NaN             NaN             NaN
             NaN             NaN             NaN
             NaN             NaN             NaN
             NaN             NaN             NaN
             NaN             NaN             NaN
             NaN             NaN             NaN
             NaN             NaN             NaN
             NaN             NaN             NaN
             NaN             NaN             NaN
             NaN             NaN             NaN
             NaN             NaN             NaN
             NaN             NaN             NaN
             NaN             NaN             NaN
             NaN             NaN             NaN
             NaN             NaN             NaN
             NaN             NaN             NaN
             NaN             NaN             NaN
             NaN             NaN             NaN
             NaN             NaN             NaN
             NaN             NaN             NaN
             NaN             NaN             NaN
             NaN             NaN             NaN
             NaN             NaN             NaN
             NaN             NaN             NaN
             NaN             NaN             NaN
             NaN             NaN             NaN
             NaN             NaN             NaN
             NaN             NaN             NaN
             NaN             NaN             NaN
             NaN             NaN             NaN
             NaN             NaN             NaN
             NaN             NaN             NaN
