Ca4 V16 P24 O96
1.0
-4.597714 6.954781 8.681278
5.096346 -6.644841 8.710044
9.810951 6.965139 0.277600
Ca V P O
4 16 24 96
direct
0.555643 0.709614 0.440020 Ca
0.504805 0.998916 0.987117 Ca
0.993703 0.001575 0.496875 Ca
0.012944 0.486128 0.997023 Ca
0.641808 0.632353 0.650078 V
0.643729 0.147817 0.141041 V
0.143119 0.146906 0.642662 V
0.142486 0.647599 0.143332 V
0.138568 0.145454 0.139916 V
0.136390 0.642055 0.641752 V
0.639094 0.641826 0.136425 V
0.637030 0.141134 0.640476 V
0.851977 0.854463 0.855830 V
0.856485 0.349018 0.355373 V
0.351953 0.354262 0.855854 V
0.348431 0.861527 0.350470 V
0.356798 0.355968 0.357187 V
0.346557 0.851103 0.853655 V
0.855828 0.846773 0.351238 V
0.851579 0.351078 0.853411 V
0.385896 0.742647 0.607615 P
0.388966 0.247114 0.106901 P
0.885274 0.243475 0.606343 P
0.890619 0.745679 0.102821 P
0.393203 0.607952 0.252408 P
0.387728 0.106981 0.751740 P
0.890534 0.105115 0.251540 P
0.889379 0.606598 0.757805 P
0.607382 0.384591 0.748719 P
0.605050 0.892087 0.234991 P
0.102988 0.889822 0.741097 P
0.106977 0.388711 0.244335 P
0.247943 0.390216 0.606747 P
0.244199 0.892041 0.103730 P
0.742665 0.886204 0.604248 P
0.753870 0.388946 0.107485 P
0.752269 0.600789 0.388888 P
0.747083 0.104373 0.886527 P
0.240692 0.110138 0.389327 P
0.247889 0.604890 0.889571 P
0.606631 0.249424 0.388190 P
0.606168 0.754535 0.893035 P
0.104516 0.744987 0.392915 P
0.107389 0.250299 0.890821 P
0.682721 0.586259 0.497046 O
0.679959 0.083340 0.996388 O
0.172251 0.080944 0.495874 O
0.181351 0.579425 0.998884 O
0.166029 0.484784 0.630296 O
0.163647 0.987334 0.127001 O
0.662759 0.984253 0.622402 O
0.676166 0.486330 0.132090 O
0.491901 0.669183 0.593071 O
0.492959 0.174410 0.077983 O
0.992852 0.176069 0.581226 O
0.992624 0.668955 0.078892 O
0.624307 0.164493 0.482491 O
0.622844 0.661417 0.980842 O
0.113961 0.656179 0.484173 O
0.130266 0.164484 0.983515 O
0.587923 0.497727 0.686299 O
0.586515 0.999727 0.167632 O
0.079693 0.000465 0.676480 O
0.085698 0.500208 0.180257 O
0.491845 0.618889 0.167111 O
0.487157 0.132422 0.670429 O
0.988075 0.126333 0.168763 O
0.987625 0.631925 0.676035 O
0.510519 0.363071 0.827639 O
0.508477 0.882463 0.321288 O
0.007348 0.865871 0.822207 O
0.013192 0.366994 0.328810 O
0.495930 0.313787 0.407021 O
0.494823 0.818576 0.914168 O
0.002676 0.823157 0.414009 O
0.995732 0.313179 0.914362 O
0.833422 0.507024 0.364385 O
0.831981 0.010958 0.863530 O
0.320008 0.007574 0.367533 O
0.333238 0.512102 0.865511 O
0.408270 0.501120 0.319578 O
0.414736 0.997293 0.814913 O
0.911738 0.994316 0.316496 O
0.918225 0.497779 0.821715 O
0.386578 0.823668 0.506192 O
0.366932 0.327641 0.006570 O
0.864731 0.325194 0.507201 O
0.876340 0.831294 0.006968 O
0.316674 0.411326 0.500629 O
0.317798 0.917610 0.999265 O
0.821029 0.909912 0.502233 O
0.827358 0.413954 0.003156 O
0.288422 0.666617 0.613061 O
0.293469 0.167192 0.124613 O
0.794983 0.158180 0.620150 O
0.791548 0.671140 0.116948 O
0.788636 0.596034 0.687127 O
0.787080 0.100274 0.184953 O
0.287026 0.096595 0.680824 O
0.287247 0.610615 0.188469 O
0.628547 0.300559 0.660009 O
0.608184 0.801233 0.151447 O
0.119301 0.804065 0.652087 O
0.113370 0.305284 0.151454 O
0.676710 0.783916 0.582758 O
0.684673 0.288391 0.089851 O
0.180387 0.284922 0.593884 O
0.178093 0.787657 0.088094 O
0.665553 0.629306 0.301100 O
0.659102 0.116632 0.799235 O
0.156676 0.126116 0.299215 O
0.162687 0.623965 0.800683 O
0.605483 0.700565 0.780899 O
0.597011 0.185201 0.280079 O
0.098897 0.188385 0.784284 O
0.092103 0.689344 0.282623 O
0.404687 0.313180 0.207726 O
0.392480 0.808648 0.711013 O
0.905648 0.808423 0.207731 O
0.895936 0.311607 0.708040 O
0.396046 0.702588 0.332363 O
0.370337 0.193097 0.839149 O
0.881088 0.189767 0.341443 O
0.869080 0.694155 0.843239 O
0.215448 0.391622 0.305312 O
0.207934 0.899692 0.808899 O
0.708654 0.888156 0.304992 O
0.711586 0.398293 0.816963 O
0.817816 0.862939 0.703179 O
0.836280 0.363455 0.200814 O
0.327302 0.366453 0.702361 O
0.326827 0.869186 0.196398 O
0.310819 0.208021 0.401862 O
0.310444 0.711193 0.904667 O
0.819503 0.707195 0.399095 O
0.810828 0.209417 0.897508 O
0.696538 0.332795 0.371982 O
0.692471 0.843385 0.893112 O
0.202629 0.820385 0.385223 O
0.190506 0.342634 0.881322 O
