Ca8 Co4 Si6 O24                         
   1.00000000000000     
     7.7637341285039509   -0.1662459895543335    4.1161413768913846
     2.4020798184868415    7.3840993997212614    4.1165082613036752
    -0.2335374043209801   -0.1663040481339162    8.7567358469892138
   Ca   Co   Si   O 
     8     4     6    24
Direct
  0.4987494640315049  0.4983601573944156  0.4980924069760206
  0.9983694017508640  0.9987416594404763  0.9981005149764002
  0.3818794246438131  0.7483755206547684  0.1143562942529641
  0.8825417522561168  0.6146007598010570  0.2482630439592413
  0.1146346633422226  0.3825201975088746  0.7482799224913066
  0.2483926908865683  0.8818221656106786  0.6143950467132413
  0.7485906711711223  0.1147906938882102  0.3817491914723448
  0.6147860145945003  0.2485813930634819  0.8817425696714949
  0.6482584260426307  0.6494446511135266  0.6481226762684997
  0.1494977084312126  0.1481872115209626  0.1482583690970571
  0.8469333701424517  0.8480378140063749  0.8477930323603147
  0.3480824808290492  0.3468411940607652  0.3477001215520517
  0.9481081814915200  0.2477543308650567  0.5483196431034543
  0.4470746952853375  0.0496243675911003  0.7487559197014448
  0.5495962784879111  0.9470566108242977  0.2487477007257084
  0.7477282278984276  0.4481208017219416  0.0482956401119239
  0.2478897455469351  0.5494996555927614  0.9479562999506328
  0.0495269131123877  0.7479083132899120  0.4479361226584615
  0.4052352238280150  0.5689324695352127  0.7545903369348821
  0.9068272124050907  0.2565358896692729  0.0651502157175798
  0.7564886910880233  0.4068378933747212  0.5652029393406082
  0.0688737184524086  0.9053589658936545  0.2546124242347716
  0.5683551140591021  0.7544848675081681  0.4073430747113633
  0.2544892100966436  0.0683308867385577  0.9073494579957853
  0.7418201761072822  0.9287624072622052  0.0902795168640438
  0.2417549933833172  0.5895231392471416  0.4301139474379596
  0.0894735119450374  0.7417025979628207  0.9301794039417786
  0.4287235729308918  0.2418412608308813  0.5902647783611954
  0.9279160935468056  0.0906813984945245  0.7417920146020691
  0.5906865228046243  0.4278873446463578  0.2417956898242366
  0.9764218330481711  0.1937906920332253  0.3815180120930179
  0.4744313671472540  0.8822242267205240  0.6972103254088964
  0.3821826285404626  0.9743751002061316  0.1972548428297287
  0.6937280434132305  0.4764575885714706  0.8815186947292375
  0.1952520288555277  0.3826455283204027  0.9760921066916879
  0.8827257586249857  0.6952181819396515  0.4759928035573253
  0.1152719436421421  0.2994994688601338  0.5210532593213628
  0.6140807249523448  0.0221114940574552  0.8011054868612248
  0.5220577057151203  0.1140534756594178  0.3011331362773575
  0.7994050319695063  0.6153270855767516  0.0210601873963299
  0.3013783957885892  0.5212248038062199  0.1149263308456412
  0.0211803877108707  0.8013257351364729  0.6149964979793694
 
  0.00000000E+00  0.00000000E+00  0.00000000E+00
  0.00000000E+00  0.00000000E+00  0.00000000E+00
  0.00000000E+00  0.00000000E+00  0.00000000E+00
  0.00000000E+00  0.00000000E+00  0.00000000E+00
  0.00000000E+00  0.00000000E+00  0.00000000E+00
  0.00000000E+00  0.00000000E+00  0.00000000E+00
  0.00000000E+00  0.00000000E+00  0.00000000E+00
  0.00000000E+00  0.00000000E+00  0.00000000E+00
  0.00000000E+00  0.00000000E+00  0.00000000E+00
  0.00000000E+00  0.00000000E+00  0.00000000E+00
  0.00000000E+00  0.00000000E+00  0.00000000E+00
  0.00000000E+00  0.00000000E+00  0.00000000E+00
  0.00000000E+00  0.00000000E+00  0.00000000E+00
  0.00000000E+00  0.00000000E+00  0.00000000E+00
  0.00000000E+00  0.00000000E+00  0.00000000E+00
  0.00000000E+00  0.00000000E+00  0.00000000E+00
  0.00000000E+00  0.00000000E+00  0.00000000E+00
  0.00000000E+00  0.00000000E+00  0.00000000E+00
  0.00000000E+00  0.00000000E+00  0.00000000E+00
  0.00000000E+00  0.00000000E+00  0.00000000E+00
  0.00000000E+00  0.00000000E+00  0.00000000E+00
  0.00000000E+00  0.00000000E+00  0.00000000E+00
  0.00000000E+00  0.00000000E+00  0.00000000E+00
  0.00000000E+00  0.00000000E+00  0.00000000E+00
  0.00000000E+00  0.00000000E+00  0.00000000E+00
  0.00000000E+00  0.00000000E+00  0.00000000E+00
  0.00000000E+00  0.00000000E+00  0.00000000E+00
  0.00000000E+00  0.00000000E+00  0.00000000E+00
  0.00000000E+00  0.00000000E+00  0.00000000E+00
  0.00000000E+00  0.00000000E+00  0.00000000E+00
  0.00000000E+00  0.00000000E+00  0.00000000E+00
  0.00000000E+00  0.00000000E+00  0.00000000E+00
  0.00000000E+00  0.00000000E+00  0.00000000E+00
  0.00000000E+00  0.00000000E+00  0.00000000E+00
  0.00000000E+00  0.00000000E+00  0.00000000E+00
  0.00000000E+00  0.00000000E+00  0.00000000E+00
  0.00000000E+00  0.00000000E+00  0.00000000E+00
  0.00000000E+00  0.00000000E+00  0.00000000E+00
  0.00000000E+00  0.00000000E+00  0.00000000E+00
  0.00000000E+00  0.00000000E+00  0.00000000E+00
  0.00000000E+00  0.00000000E+00  0.00000000E+00
  0.00000000E+00  0.00000000E+00  0.00000000E+00
