Vanadium                                
   1.00000000000000     
     3.0055626942386664    0.0000000033596723   -0.0000000044322686
     0.0000000031936836    3.0055855321269602   -0.0000000013902519
    -0.0000000043346600   -0.0000000011082052    3.0054786564487519
   V 
     2
Direct
  0.0000000804557377 -0.0000000002881928 -0.0000000003897435
  0.4999999195442623  0.5000000002881928  0.5000000003897436
 
  0.00000000E+00  0.00000000E+00  0.00000000E+00
  0.00000000E+00  0.00000000E+00  0.00000000E+00
