Ca1 Fe4 S6 O24                          
   1.00000000000000     
     7.5690340000000003    0.2014490000000000    4.5744470000000002
     2.6779970000000000    7.0746529999999996    4.5853580000000003
     0.2939960000000000    0.2199380000000000    8.8438479999999995
   Ca   Fe   S    O 
     1     4     6    24
Direct
  0.3062635427895345  0.7044031230139279  0.5427013223336239
  0.6634600179561878  0.6316766597109146  0.6498479037847078
  0.1443718202471633  0.1541845237751392  0.1356807908120342
  0.8343976396369708  0.8581204519736914  0.8501249639501831
  0.3545324111135827  0.3499390824915570  0.3606263325007310
  0.9706639481106090  0.2386631215875623  0.5299015589703252
  0.4551019649560242  0.0477566746055195  0.7495668652923653
  0.5436437697399805  0.9568690416476052  0.2508380605030467
  0.7381180611224306  0.4678770509617122  0.0489728940762081
  0.2558173981920062  0.5254113075635903  0.9637157786823671
  0.0240772408385109  0.7556479762207842  0.4417527748707951
  0.4081191211739204  0.5929852372881537  0.7811142893327060
  0.9365692911454709  0.3350234006727511  0.0255557553761356
  0.7817208990545474  0.3615906925658669  0.6193725498229923
  0.0058472812481088  0.9542341462943640  0.3148738837471561
  0.5893479605266125  0.7651332014282545  0.4052845570531457
  0.3078652721006280  0.0204653586377810  0.9451320952156866
  0.6960460243165221  0.9567489854107962  0.0659088266827069
  0.2286920975455074  0.6276073077912516  0.3803689675729972
  0.0736522974255229  0.6701575468999138  0.9352821462926290
  0.3771295300033915  0.2413433118292569  0.6179175897833652
  0.9982561563941790  0.0300266106924104  0.6473454354740573
  0.6046112275087585  0.3923028534140458  0.2402894200663839
  0.9898901015225832  0.2768396270236327  0.3373664726934186
  0.5078530143456444  0.8972447532090424  0.6880332970769076
  0.3599036393429365  0.9752975407749043  0.2604686031968844
  0.6901312317546868  0.4922810872063348  0.9008705138285897
  0.2861486188307867  0.3403600566363129  0.9738879219898653
  0.8997083693847343  0.6940443611979950  0.4467712018256576
  0.1219716590859696  0.2736646401038211  0.5167701600157831
  0.6248686531736136  0.0428040205565417  0.7481066418688631
  0.5147249571557512  0.1077543711302064  0.2943915630541723
  0.7158631684970901  0.6550234467370974  0.0288080147387080
  0.2709298707036193  0.5102739674831437  0.1259429091487388
  0.9853795284400427  0.7298315167779754  0.6397572656147182
 
             NaN             NaN             NaN
             NaN             NaN             NaN
             NaN             NaN             NaN
             NaN             NaN             NaN
             NaN             NaN             NaN
             NaN             NaN             NaN
             NaN             NaN             NaN
             NaN             NaN             NaN
             NaN             NaN             NaN
             NaN             NaN             NaN
             NaN             NaN             NaN
             NaN             NaN             NaN
             NaN             NaN             NaN
             NaN             NaN             NaN
             NaN             NaN             NaN
             NaN             NaN             NaN
             NaN             NaN             NaN
             NaN             NaN             NaN
             NaN             NaN             NaN
             NaN             NaN             NaN
             NaN             NaN             NaN
             NaN             NaN             NaN
             NaN             NaN             NaN
             NaN             NaN             NaN
             NaN             NaN             NaN
             NaN             NaN             NaN
             NaN             NaN             NaN
             NaN             NaN             NaN
             NaN             NaN             NaN
             NaN             NaN             NaN
             NaN             NaN             NaN
             NaN             NaN             NaN
             NaN             NaN             NaN
             NaN             NaN             NaN
             NaN             NaN             NaN
