Ca1 Cr4 P6 O24                          
   1.00000000000000     
     2.6078999999999999    7.0023390000000001    4.3924960000000004
     0.2784740000000000    0.1187750000000000    8.6360200000000003
     7.4512590000000003    0.1305620000000000    4.3653610000000000
   Ca   Cr   P    O 
     1     4     6    24
Direct
  0.2519164525692661  0.8669223877754675  0.6044877832565190
  0.6498903635497141  0.6400137494847494  0.6414494075828489
  0.1364257422665661  0.1444297723125607  0.1382927985753722
  0.8512967304410309  0.8391611014339506  0.8578148667209248
  0.3644501500417044  0.3410584007356128  0.3563421274155686
  0.2530248311803123  0.5216390678408461  0.9612286789590372
  0.0328493479814405  0.7416200586420715  0.4673746583355465
  0.9663937656793041  0.2508657851069545  0.5185364880012887
  0.4582547515657963  0.0223508609171797  0.7493343897286264
  0.5459352875410883  0.9701434464242962  0.2354832476564890
  0.7466951431793685  0.4552764774847862  0.0440844714057340
  0.5751467204196182  0.7797683954885378  0.4115832122919122
  0.2918732902376470  0.0479548348194601  0.9343473722361466
  0.4263665823307990  0.5530496327852036  0.7722862068229731
  0.9208762074945833  0.2689975189639253  0.0564761672230901
  0.8099847753411121  0.4320537008517197  0.5556401431601781
  0.0737356634644122  0.9205128061333731  0.2937691604716756
  0.9288872598581368  0.0674635855882561  0.6896730020411782
  0.5678119120457085  0.4413640345379172  0.2241449992096066
  0.7075338447081491  0.9507993110136974  0.0493124516936411
  0.1901019311709401  0.5568374309906257  0.4327160567531558
  0.0832131127004895  0.7152712334414957  0.9312571684249746
  0.4308623730868619  0.2137230480369934  0.5770223873717183
  0.2119736079474535  0.3607534401229459  0.9789092143731581
  0.8370479889567868  0.7560850432021198  0.5005007302027991
  0.9765816964128909  0.2515689056947615  0.3358557913135569
  0.4551981305231032  0.8656998224882587  0.7159046295038979
  0.3469219226987758  1.0094443147060173  0.2448873378247989
  0.7042488265723195  0.5080045487041767  0.8678404093543650
  0.2905187018987254  0.4751379512261726  0.1358645695576163
  0.0354050976766687  0.7425164397672596  0.6440078399620034
  0.1661896387046195  0.2210823909851242  0.4998994924632601
  0.6501137306184553  0.9616494842537018  0.7627771786731232
  0.5382685828603354  0.1317280460692748  0.2690458047718010
  0.7949074918134142  0.6157303980255485  1.0211497086145962
 
             NaN             NaN             NaN
             NaN             NaN             NaN
             NaN             NaN             NaN
             NaN             NaN             NaN
             NaN             NaN             NaN
             NaN             NaN             NaN
             NaN             NaN             NaN
             NaN             NaN             NaN
             NaN             NaN             NaN
             NaN             NaN             NaN
             NaN             NaN             NaN
             NaN             NaN             NaN
             NaN             NaN             NaN
             NaN             NaN             NaN
             NaN             NaN             NaN
             NaN             NaN             NaN
             NaN             NaN             NaN
             NaN             NaN             NaN
             NaN             NaN             NaN
             NaN             NaN             NaN
             NaN             NaN             NaN
             NaN             NaN             NaN
             NaN             NaN             NaN
             NaN             NaN             NaN
             NaN             NaN             NaN
             NaN             NaN             NaN
             NaN             NaN             NaN
             NaN             NaN             NaN
             NaN             NaN             NaN
             NaN             NaN             NaN
             NaN             NaN             NaN
             NaN             NaN             NaN
             NaN             NaN             NaN
             NaN             NaN             NaN
             NaN             NaN             NaN
