Ca1 Cr4 P6 O24
1.0
2.607900 7.002339 4.392496
0.278474 0.118775 8.636020
7.451259 0.130562 4.365361
Ca Cr P O
1 4 6 24
direct
0.276835 0.834760 0.602960 Ca
0.645695 0.637812 0.647085 Cr
0.135981 0.141230 0.143987 Cr
0.849564 0.849738 0.853233 Cr
0.361470 0.352295 0.351313 Cr
0.247746 0.529312 0.965551 P
0.036063 0.745936 0.466464 P
0.957191 0.255457 0.521769 P
0.463139 0.028669 0.748026 P
0.534960 0.971228 0.241071 P
0.749032 0.454712 0.037947 P
0.574931 0.785795 0.415420 O
0.306052 0.046401 0.939735 O
0.413433 0.568560 0.771196 O
0.932247 0.279478 0.043385 O
0.787056 0.430936 0.557899 O
0.056376 0.927226 0.286427 O
0.934689 0.071271 0.700512 O
0.580327 0.428951 0.227526 O
0.691000 0.952054 0.052889 O
0.208615 0.569899 0.427245 O
0.070540 0.713884 0.943022 O
0.417483 0.217127 0.580662 O
0.219347 0.355817 0.996310 O
0.850457 0.728555 0.515832 O
0.968870 0.240645 0.347271 O
0.465380 0.863740 0.723747 O
0.334832 0.997842 0.263156 O
0.698008 0.488488 0.875158 O
0.292942 0.499278 0.129153 O
0.037401 0.761575 0.634647 O
0.148742 0.252210 0.490956 O
0.658388 -0.011641 0.740789 O
0.522505 0.139870 0.266546 O
0.782196 0.630622 -0.000557 O
