Ca2 Cr4 S6 O24                          
   1.00000000000000     
     7.4669990000000004   -0.0116760000000000    4.5683340000000001
     2.3786670000000001    7.0769209999999996    4.5696409999999998
    -0.0093570000000000   -0.0213520000000000    9.2558950000000006
   Ca   Cr   S    O 
     2     4     6    24
Direct
  0.4781026970786810  0.5155064676738350  0.5082060945771119
  0.9819866093997375  1.0214192267297577  0.9915485902152703
  0.6488833093825527  0.6403358393235211  0.6610233692798049
  0.1420923069138655  0.1497174122807347  0.1554036630121882
  0.8478501347485216  0.8541858743196260  0.8399583888452222
  0.3379197135457070  0.3665693200195025  0.3429740632544848
  0.9373969277094411  0.2564945987074506  0.5574392259833768
  0.4570548377172789  0.0449904023871078  0.7474156079922561
  0.5281296929010774  0.9637180733994409  0.2527548882844018
  0.7491567118209302  0.4356626613396923  0.0492879143515112
  0.2378232356924256  0.5682548104616011  0.9487315150386844
  0.0530006820998952  0.7545527511815568  0.4395263061453769
  0.4051074336702079  0.5653309163799092  0.7778794944885431
  0.9015317998011498  0.2592541628479990  0.1025475920684829
  0.7590870456212756  0.4207282556060696  0.5715740083426433
  0.0715067680155946  0.9058862804554892  0.2588521459734153
  0.5280721266137913  0.7931855924425653  0.4161671142473072
  0.2645374855903376  0.0737274526362887  0.8824273937625124
  0.7181904142756805  0.9334295379516304  0.1145997325050431
  0.2304966462871480  0.5899033623226624  0.4201023774826316
  0.0842609141899936  0.7482115485616856  0.9040263212156777
  0.4623724552529538  0.2212512868274410  0.5892619569662689
  0.9074578671644890  0.1017195600071047  0.7369759200161082
  0.5818941440022316  0.4513773222396484  0.2157126745816594
  0.9717309754495116  0.2036547352332064  0.4170526209414633
  0.5037375494305897  0.8907446838095889  0.6955766330602916
  0.3907977120298057 -0.0087581929774577  0.1893232476665897
  0.7128146938158655  0.4124633815327030  0.9260786229516396
  0.1806091750361884  0.4083594629535576  1.0101425493963516
  0.8932935073897840  0.7012225664044401  0.4931570117737840
  0.0915383675442266  0.3052151770463107  0.5266839748536728
  0.5902909748506743  1.0029689090282661  0.8232933198116670
  0.4822462956678414  0.1271381555120103  0.2908351487893760
  0.8106666369952953  0.5984342947435125 -0.0348843426945875
  0.2790973156018460  0.5688053454589572  0.0808565422895222
  0.0404682904337813  0.8100648912651210  0.5686783502057134
 
             NaN             NaN             NaN
             NaN             NaN             NaN
             NaN             NaN             NaN
             NaN             NaN             NaN
             NaN             NaN             NaN
             NaN             NaN             NaN
             NaN             NaN             NaN
             NaN             NaN             NaN
             NaN             NaN             NaN
             NaN             NaN             NaN
             NaN             NaN             NaN
             NaN             NaN             NaN
             NaN             NaN             NaN
             NaN             NaN             NaN
             NaN             NaN             NaN
             NaN             NaN             NaN
             NaN             NaN             NaN
             NaN             NaN             NaN
             NaN             NaN             NaN
             NaN             NaN             NaN
             NaN             NaN             NaN
             NaN             NaN             NaN
             NaN             NaN             NaN
             NaN             NaN             NaN
             NaN             NaN             NaN
             NaN             NaN             NaN
             NaN             NaN             NaN
             NaN             NaN             NaN
             NaN             NaN             NaN
             NaN             NaN             NaN
             NaN             NaN             NaN
             NaN             NaN             NaN
             NaN             NaN             NaN
             NaN             NaN             NaN
             NaN             NaN             NaN
             NaN             NaN             NaN
