Ca2 Cr4 S6 O24
1.0
7.466999 -0.011676 4.568334
2.378667 7.076921 4.569641
-0.009357 -0.021352 9.255895
Ca Cr S O
2 4 6 24
direct
0.469453 0.546779 0.506563 Ca
0.998287 0.998029 0.997815 Ca
0.649731 0.639163 0.652039 Cr
0.140224 0.150530 0.150496 Cr
0.854114 0.841520 0.845726 Cr
0.342342 0.356294 0.346721 Cr
0.940236 0.248884 0.556858 S
0.462351 0.030674 0.745687 S
0.530574 0.964440 0.245516 S
0.749627 0.437528 0.053792 S
0.245958 0.557759 0.941947 S
0.056705 0.747679 0.440615 S
0.403483 0.570980 0.764442 O
0.906787 0.255945 0.084909 O
0.761172 0.408678 0.580656 O
0.074156 0.903686 0.261896 O
0.541627 0.778541 0.389858 O
0.274480 0.052658 0.887867 O
0.717063 0.956383 0.102653 O
0.234250 0.585818 0.417184 O
0.086373 0.738550 0.913098 O
0.463427 0.211926 0.596722 O
0.921676 0.088650 0.732787 O
0.587407 0.426015 0.226887 O
0.966564 0.199980 0.417022 O
0.497953 0.889581 0.681814 O
0.393956 0.010097 0.172790 O
0.706452 0.455682 0.913638 O
0.189107 0.401680 0.992831 O
0.897425 0.696177 0.489726 O
0.095370 0.300309 0.518688 O
0.604092 0.971560 0.818289 O
0.475654 0.104984 0.318427 O
0.806948 0.591221 0.009435 O
0.295665 0.544202 0.075395 O
0.040214 0.800502 0.573858 O
