Mn2 P8
1.0
5.595549 0.000000 -1.743891
-2.433619 4.473554 -0.340040
0.000000 0.000000 5.836000
Mn P
2 8
direct
0.782800 0.784200 0.274400 Mn2+
0.217200 0.215800 0.725600 Mn2+
0.880700 0.753100 0.669700 P-
0.119300 0.246900 0.330300 P-
0.580200 0.701000 0.847800 P-
0.419800 0.299000 0.152200 P-
0.512700 0.061500 0.696300 P0+
0.487300 0.938500 0.303700 P0+
0.954700 0.399900 0.804300 P0+
0.045300 0.600100 0.195700 P0+
