Ca2 Co4 S6 O24
1.0
7.669331 0.055801 4.445911
2.708120 6.995233 4.559951
0.266980 -0.021835 8.845661
Ca Co S O
2 4 6 24
direct
0.349844 0.725558 0.554468 Ca
0.970696 1.012530 1.011030 Ca
0.652227 0.644171 0.652674 Co
0.139831 0.151414 0.143448 Co
0.842471 0.849145 0.843048 Co
0.361861 0.348649 0.348674 Co
0.966822 0.247503 0.535600 S
0.435392 0.040568 0.750906 S
0.553778 0.957379 0.239010 S
0.743599 0.452068 0.047463 S
0.250567 0.541593 0.955231 S
0.035785 0.751364 0.453669 S
0.415172 0.558229 0.776079 O
0.886882 0.260095 0.099812 O
0.819330 0.427297 0.542638 O
0.082595 0.895818 0.264203 O
0.572050 0.782082 0.406196 O
0.246378 0.084934 0.899859 O
0.726101 0.920960 0.076908 O
0.183711 0.569049 0.456147 O
0.094198 0.732913 0.921202 O
0.443517 0.211117 0.582762 O
0.926505 0.093882 0.723877 O
0.568859 0.466345 0.209539 O
0.980364 0.199926 0.393831 O
0.449557 0.889341 0.710623 O
0.384727 1.000127 0.213879 O
0.717526 0.464216 0.891358 O
0.196841 0.394829 0.987021 O
0.857290 0.752130 0.493633 O
0.146777 0.243206 0.501112 O
0.581803 -0.022763 0.820107 O
0.547096 0.112429 0.262838 O
0.814256 0.594156 -0.003375 O
0.288544 0.511016 0.110869 O
0.023247 0.802667 0.595254 O
