Ca4 Ti4 Si4 O20                         
   1.00000000000000     
     6.4643298422614235    0.0000028072173302   -2.8567185653874256
     0.0000027904018073    8.7241110138216893   -0.0000022469835421
     0.0073301914473404   -0.0000017024140139    6.5874791323752184
   Ca   Ti   Si   O 
     4     4     4    20
Direct
  0.7476172915405854  0.5810199439634331  0.7497969677351577
  0.7523844720951658  0.0810248569211396  0.2502095325560845
  0.2523847191337438  0.4189749632005615  0.2502091761236258
  0.2476177695649469  0.9189802301348493  0.7497967778054999
  0.9994894149136115  0.7497479876458470  0.2495867766489397
  0.5005136259726228  0.2497410731055396  0.7504108421837259
  0.0005137230850920  0.2502589634079655  0.7504110143073817
  0.4994893220116836  0.7502517618596869  0.2495867442502302
  0.2496816830488129  0.5685003457742255  0.7496044467115155
  0.2503161197546930  0.0685148614424733  0.2503964776383825
  0.7503167790367442  0.4314849325385310  0.2503963727157839
  0.7496815325325699  0.9314998088711732  0.7496046741447628
  0.2495586456891488  0.6772252816029010  0.2495800040055371
  0.2504379848533844  0.1772265306123586  0.7504124313706200
  0.7504378938235803  0.3227736306123603  0.7504123629323018
  0.7495584399253445  0.8227746801779432  0.2495799038989261
  0.4096981094690619  0.6847158685148997  0.9332675354772775
  0.0903175648604844  0.1847212768070250  0.0667440626284304
  0.5903175172244772  0.3152791024033590  0.0667444794515291
  0.9096979769298414  0.8152839638305949  0.9332676645290618
  0.8808187288735567  0.5379534963234178  0.1474960370530809
  0.6191719222507075  0.0379377012985387  0.8525014111222049
  0.1191716692331823  0.4620626560091097  0.8525011209583440
  0.3808174899232952  0.9620460042097747  0.1474953682177045
  0.4108982914164017  0.1837798807572781  0.4350280145773908
  0.0891095447475792  0.6837862020614480  0.5649637649373958
  0.5891094183564718  0.8162142354615867  0.5649635620751923
  0.9108981845174142  0.3162196373768964  0.4350285363972048
  0.8821127811485141  0.0376480347017250  0.6483679570218897
  0.6178746124281602  0.5376367503931974  0.3516340988544897
  0.1178740713095792  0.9623634344853258  0.3516340939262719
  0.3821127003295501  0.4623519034948274  0.6483677877440641
 
  0.00000000E+00  0.00000000E+00  0.00000000E+00
  0.00000000E+00  0.00000000E+00  0.00000000E+00
  0.00000000E+00  0.00000000E+00  0.00000000E+00
  0.00000000E+00  0.00000000E+00  0.00000000E+00
  0.00000000E+00  0.00000000E+00  0.00000000E+00
  0.00000000E+00  0.00000000E+00  0.00000000E+00
  0.00000000E+00  0.00000000E+00  0.00000000E+00
  0.00000000E+00  0.00000000E+00  0.00000000E+00
  0.00000000E+00  0.00000000E+00  0.00000000E+00
  0.00000000E+00  0.00000000E+00  0.00000000E+00
  0.00000000E+00  0.00000000E+00  0.00000000E+00
  0.00000000E+00  0.00000000E+00  0.00000000E+00
  0.00000000E+00  0.00000000E+00  0.00000000E+00
  0.00000000E+00  0.00000000E+00  0.00000000E+00
  0.00000000E+00  0.00000000E+00  0.00000000E+00
  0.00000000E+00  0.00000000E+00  0.00000000E+00
  0.00000000E+00  0.00000000E+00  0.00000000E+00
  0.00000000E+00  0.00000000E+00  0.00000000E+00
  0.00000000E+00  0.00000000E+00  0.00000000E+00
  0.00000000E+00  0.00000000E+00  0.00000000E+00
  0.00000000E+00  0.00000000E+00  0.00000000E+00
  0.00000000E+00  0.00000000E+00  0.00000000E+00
  0.00000000E+00  0.00000000E+00  0.00000000E+00
  0.00000000E+00  0.00000000E+00  0.00000000E+00
  0.00000000E+00  0.00000000E+00  0.00000000E+00
  0.00000000E+00  0.00000000E+00  0.00000000E+00
  0.00000000E+00  0.00000000E+00  0.00000000E+00
  0.00000000E+00  0.00000000E+00  0.00000000E+00
  0.00000000E+00  0.00000000E+00  0.00000000E+00
  0.00000000E+00  0.00000000E+00  0.00000000E+00
  0.00000000E+00  0.00000000E+00  0.00000000E+00
  0.00000000E+00  0.00000000E+00  0.00000000E+00
