Ca1 Mn4 S6 O24                          
   1.00000000000000     
     7.7304630000000003    0.0990730000000000    4.9479150000000001
     2.7757570000000000    6.9440619999999997    4.8270320000000000
     0.5678820000000000    0.1388150000000000    8.9668340000000004
   Ca   Mn   S    O 
     1     4     6    24
Direct
  0.3828229206740760  0.6288083180986225  0.5051273854718965
  0.6521467793556665  0.6442900291315776  0.6544585040396312
  0.1438288328824054  0.1558935520797821  0.1470548408864606
  0.8345429274732472  0.8532186261387890  0.8427607328990776
  0.3537043097132132  0.3503259066634788  0.3553420951235061
  0.9679898565246494  0.2332493028298782  0.5347242127080110
  0.4360730298220524  0.0573049700799793  0.7559312934523504
  0.5522451308570215  0.9555792824532340  0.2400296674025530
  0.7378958144609280  0.4739143912740978  0.0575583698961365
  0.2479597668043291  0.5250570785255911  0.9607810104630030
  0.0296983204444304  0.7650330534046247  0.4431775932522238
  0.4054027608155438  0.5863533561268118  0.7699659035834410
  0.9353501266055166  0.3457123831730445  0.0222814766468048
  0.7827647113108791  0.3624109631961203  0.6230298597040971
  0.0004127530030077  0.9729957348367431  0.3289748098854275
  0.6170541827987968  0.7589809502002060  0.3808280018412990
  0.2947855897491070  0.0228635893648590  0.9673088899718513
  0.6940917859213894  0.9756442359513535  0.0355574698599336
  0.2318889854840518  0.6480468257338409  0.3562045380798061
  0.0672398440312602  0.6622645033459414  0.9420487433918250
  0.3560343330911689  0.2589576247941054  0.6339320777212886
  0.9806800208199390  0.0252720774670819  0.6522102296922044
  0.6033926825999715  0.4016985893942258  0.2616405532788321
  0.9880929605092345  0.2814374719899074  0.3354375542928917
  0.4619031181959958  0.9155910279146738  0.7017457426911333
  0.3685864861242370  0.9653238512603788  0.2712568734216114
  0.6806328675749327  0.5092360189591378  0.9173901756197822
  0.2853772762418441  0.3314717103845408  0.9732465434956995
  0.9014362442537388  0.7118479465417129  0.4536604625470719
  0.1259123290662931  0.2482723902054857  0.5187613691364211
  0.6177827595947873  0.0330865553139039  0.7356822404871814
  0.5284680822335898  0.1065087883798022  0.2782341130665648
  0.7123498106379006  0.6657721971419776  0.0405646610423284
  0.2609696973000373  0.5077341802048922  0.1220775073384008
  0.0037446349196279  0.7181409325694758  0.6449450995951210
 
             NaN             NaN             NaN
             NaN             NaN             NaN
             NaN             NaN             NaN
             NaN             NaN             NaN
             NaN             NaN             NaN
             NaN             NaN             NaN
             NaN             NaN             NaN
             NaN             NaN             NaN
             NaN             NaN             NaN
             NaN             NaN             NaN
             NaN             NaN             NaN
             NaN             NaN             NaN
             NaN             NaN             NaN
             NaN             NaN             NaN
             NaN             NaN             NaN
             NaN             NaN             NaN
             NaN             NaN             NaN
             NaN             NaN             NaN
             NaN             NaN             NaN
             NaN             NaN             NaN
             NaN             NaN             NaN
             NaN             NaN             NaN
             NaN             NaN             NaN
             NaN             NaN             NaN
             NaN             NaN             NaN
             NaN             NaN             NaN
             NaN             NaN             NaN
             NaN             NaN             NaN
             NaN             NaN             NaN
             NaN             NaN             NaN
             NaN             NaN             NaN
             NaN             NaN             NaN
             NaN             NaN             NaN
             NaN             NaN             NaN
             NaN             NaN             NaN
