Ca1 Mn4 S6 O24
1.0
7.730463 0.099073 4.947915
2.775757 6.944062 4.827032
0.567882 0.138815 8.966834
Ca Mn S O
1 4 6 24
direct
0.408011 0.633536 0.542900 Ca
0.652581 0.645252 0.646355 Mn
0.150653 0.150580 0.145515 Mn
0.831285 0.847893 0.845602 Mn
0.353377 0.351421 0.348880 Mn
0.955445 0.241356 0.534031 S
0.439491 0.049620 0.752670 S
0.548139 0.949287 0.240174 S
0.749511 0.461027 0.046653 S
0.248058 0.527650 0.954151 S
0.043880 0.756072 0.453601 S
0.390793 0.598555 0.756781 O
0.946671 0.335730 0.012594 O
0.767479 0.372649 0.613444 O
0.019142 0.963657 0.329462 O
0.624079 0.754902 0.372863 O
0.308115 0.014894 0.964495 O
0.682971 0.975649 0.031806 O
0.240245 0.631265 0.372438 O
0.059447 0.663738 0.964614 O
0.356398 0.247315 0.630209 O
0.965856 0.036948 0.661289 O
0.618174 0.381454 0.249982 O
0.984572 0.280690 0.335091 O
0.461116 0.904548 0.705350 O
0.364166 0.960822 0.275359 O
0.695107 0.496433 0.904923 O
0.278142 0.338570 0.964215 O
0.904654 0.711440 0.471179 O
0.104308 0.264021 0.522607 O
0.624123 0.030803 0.718398 O
0.523936 0.099271 0.280510 O
0.718899 0.652582 0.034034 O
0.284141 0.498574 0.105294 O
0.013262 0.721272 0.652772 O
