Ca2 Ni4 S6 O24                          
   1.00000000000000     
     7.5323989999999998    0.1709170000000000    4.4751609999999999
     2.6226210000000001    7.0423600000000004    4.4564919999999999
     0.1565800000000000    0.1607300000000000    8.7630640000000000
   Ca   Ni   S    O 
     2     4     6    24
Direct
  0.2759618034045087  0.7727116089836190  0.5558936324812606
  0.9742436619195687  0.0352847908547386 -0.0117466005013647
  0.6614665693513587  0.6255081750155651  0.6590680396816274
  0.1510567832919001  0.1442156604546105  0.1384491259745879
  0.8295444611049506  0.8582926022265512  0.8518016609693549
  0.3556406727811091  0.3553613840241838  0.3492001371209248
  0.9636469406042232  0.2444365309639074  0.5393752124612933
  0.4509868471374309  0.0323027690075130  0.7545169720334672
  0.5505969439446669  0.9680354359208920  0.2395281410856012
  0.7500572889773203  0.4466982698758683  0.0426216418654089
  0.2459599466459196  0.5447333116982577  0.9623233867318579
  0.0357650851771525  0.7464354571143050  0.4450562563586203
  0.4257139069690614  0.5432791561402839  0.7925934031987197
  0.8860128076033503  0.2546480271710641  0.1236965520880267
  0.8026527343840653  0.4261635762140860  0.5233879148080104
  0.0915283998544157  0.8899892475334598  0.2530830167870524
  0.5439991648486053  0.8353635257973515  0.4372673306543932
  0.2492187767786425  0.1042381537887478  0.8840733562801386
  0.7388959694429860  0.8924670169942476  0.1046066262443740
  0.2088558284353079  0.5728195559654062  0.4701414767807749
  0.1016845107009469  0.7393303449822787  0.8881644601231100
  0.4733734056484701  0.1656130059531662  0.5585655907593187
  0.9073160363325328  0.0964982029448030  0.7327144888886679
  0.5607797083200791  0.4775293319139923  0.1877359333941003
  1.0205862832088752  0.1657137290298123  0.3988455843966786
  0.4837322668530122  0.8394505273777774  0.7753026388805128
  0.3935671403172055  0.9669976430721169  0.2195283034221067
  0.7577007964723206  0.4279241928251982  0.8787754887311059
  0.1938722863667304  0.3924803422392551  1.0034580909407436
  0.8834437485036467  0.7114883573643503  0.4624269171558223
  0.1309315803414984  0.2552917060953090  0.5294494760406070
  0.5782818833169466  1.0232052162936915  0.8213237636865072
  0.5264924939875397  0.1592535158398860  0.2086890637336664
  0.8178911325595327  0.5969674316977808 -0.0213705646778750
  0.2531719047301385  0.5425040585886928  0.1244646029193202
 -0.0249763374884885  0.8235244753438445  0.5911835007656970
 
             NaN             NaN             NaN
             NaN             NaN             NaN
             NaN             NaN             NaN
             NaN             NaN             NaN
             NaN             NaN             NaN
             NaN             NaN             NaN
             NaN             NaN             NaN
             NaN             NaN             NaN
             NaN             NaN             NaN
             NaN             NaN             NaN
             NaN             NaN             NaN
             NaN             NaN             NaN
             NaN             NaN             NaN
             NaN             NaN             NaN
             NaN             NaN             NaN
             NaN             NaN             NaN
             NaN             NaN             NaN
             NaN             NaN             NaN
             NaN             NaN             NaN
             NaN             NaN             NaN
             NaN             NaN             NaN
             NaN             NaN             NaN
             NaN             NaN             NaN
             NaN             NaN             NaN
             NaN             NaN             NaN
             NaN             NaN             NaN
             NaN             NaN             NaN
             NaN             NaN             NaN
             NaN             NaN             NaN
             NaN             NaN             NaN
             NaN             NaN             NaN
             NaN             NaN             NaN
             NaN             NaN             NaN
             NaN             NaN             NaN
             NaN             NaN             NaN
             NaN             NaN             NaN
