Ca2 Ni4 S6 O24
1.0
7.532399 0.170917 4.475161
2.622621 7.042360 4.456492
0.156580 0.160730 8.763064
Ca Ni S O
2 4 6 24
direct
0.345566 0.728464 0.553386 Ca
0.974885 1.008767 1.011401 Ca
0.650393 0.646627 0.649570 Ni
0.139996 0.150311 0.143302 Ni
0.841843 0.846974 0.846155 Ni
0.359792 0.347920 0.348999 Ni
0.963563 0.249565 0.535661 S
0.438715 0.040272 0.750463 S
0.552737 0.959379 0.238887 S
0.743484 0.453727 0.047829 S
0.250500 0.539903 0.954844 S
0.037453 0.748942 0.453647 S
0.416883 0.558538 0.774670 O
0.889598 0.259068 0.099149 O
0.814687 0.431550 0.540197 O
0.090773 0.893292 0.263253 O
0.569338 0.784238 0.410393 O
0.247943 0.088793 0.898682 O
0.727947 0.919000 0.078348 O
0.184774 0.563697 0.458197 O
0.090798 0.732445 0.919262 O
0.449809 0.207932 0.577058 O
0.920754 0.095369 0.725733 O
0.566386 0.463911 0.211045 O
0.979609 0.200627 0.392205 O
0.450835 0.884938 0.717009 O
0.382380 0.999174 0.213812 O
0.720445 0.470967 0.885463 O
0.200234 0.390976 0.984928 O
0.857347 0.755182 0.485344 O
0.145586 0.242892 0.505429 O
0.585735 -0.019432 0.820247 O
0.545507 0.117724 0.258950 O
0.812221 0.594646 0.005306 O
0.284531 0.512583 0.113309 O
0.023161 0.797149 0.599572 O
