Ca2 V4 S6 O24                           
   1.00000000000000     
     7.6636709999999999    0.1036590000000000    4.5033360000000000
     2.6273110000000002    7.1930149999999999    4.5042150000000003
     0.1355850000000000    0.1045510000000000    8.8938980000000001
   Ca   V    S    O 
     2     4     6    24
Direct
  0.4884672271707854  0.5148893437441000  0.4962205464420107
  0.9901483711989273  0.0114712055879840  0.9948516004039605
  0.6405774781101734  0.6460642870342731  0.6537385671089434
  0.1438320690725363  0.1478266962397886  0.1474410372989245
  0.8458062898634074  0.8597889413530291  0.8484974490598588
  0.3450774235097332  0.3611573374234642  0.3508669031019908
  0.9472737592305914  0.2560381888927795  0.5474343711603782
  0.4443227933498114  0.0534541463881550  0.7498750894241999
  0.5411991043669060  0.9549354703926938  0.2487459106293002
  0.7446065789746182  0.4513409948833630  0.0447831460519625
  0.2405890935579064  0.5562269874750176  0.9544915208744325
  0.0404920889812597  0.7565378120826284  0.4509702113732458
  0.4061573435236205  0.5563589571598546  0.7783494658127302
  0.8915296318198334  0.2653162994766420  0.0910426368694650
  0.7704329379520891  0.4212040332061365  0.5480541479710249
  0.0717921560738124  0.9030161642920732  0.2617843526738918
  0.5502593612463383  0.7845373868457797  0.4194514822165933
  0.2549371300525959  0.0932822798994863  0.8948435252134672
  0.7286242002935788  0.9193984961175389  0.1006998158753301
  0.2170544513997004  0.5909066813686206  0.4451824908034011
  0.0926027118563720  0.7434159111559897  0.9147626873129818
  0.4434713814353026  0.2259164009583101  0.5802470928525589
  0.9090078856741733  0.1079905869389593  0.7347156979059676
  0.5780476881787335  0.4581822738627367  0.2190790017319996
  0.9956198694872244  0.1931583704970407  0.4025148241843962
  0.4738291617652289  0.8974946979695282  0.7124719809379397
  0.3995180241821939  0.9762724680987523  0.1961405473111953
  0.7011963664345054  0.4595759675525106  0.9028985509077095
  0.1790545087378026  0.4096340249257824  1.0032098267485723
  0.8878412279228189  0.7094075872428754  0.4892176977720066
  0.0936766098054465  0.3023023859998989  0.5259106437540427
  0.5850959648858841  0.0173944318778071  0.8123792892144509
  0.5047238154505135  0.1172286976349003  0.2801769799211477
  0.8074266442297638  0.6009116914389018 -0.0157871105044962
  0.2854333896047203  0.5363858994585909  0.1008426419216010
  0.0078865778665180  0.8208540126662454  0.5887659471166541
 
             NaN             NaN             NaN
             NaN             NaN             NaN
             NaN             NaN             NaN
             NaN             NaN             NaN
             NaN             NaN             NaN
             NaN             NaN             NaN
             NaN             NaN             NaN
             NaN             NaN             NaN
             NaN             NaN             NaN
             NaN             NaN             NaN
             NaN             NaN             NaN
             NaN             NaN             NaN
             NaN             NaN             NaN
             NaN             NaN             NaN
             NaN             NaN             NaN
             NaN             NaN             NaN
             NaN             NaN             NaN
             NaN             NaN             NaN
             NaN             NaN             NaN
             NaN             NaN             NaN
             NaN             NaN             NaN
             NaN             NaN             NaN
             NaN             NaN             NaN
             NaN             NaN             NaN
             NaN             NaN             NaN
             NaN             NaN             NaN
             NaN             NaN             NaN
             NaN             NaN             NaN
             NaN             NaN             NaN
             NaN             NaN             NaN
             NaN             NaN             NaN
             NaN             NaN             NaN
             NaN             NaN             NaN
             NaN             NaN             NaN
             NaN             NaN             NaN
             NaN             NaN             NaN
