Ca2 V4 S6 O24
1.0
7.663671 0.103659 4.503336
2.627311 7.193015 4.504215
0.135585 0.104551 8.893898
Ca V S O
2 4 6 24
direct
0.467856 0.544153 0.508982 Ca
0.991922 1.001905 0.999711 Ca
0.645311 0.643785 0.646428 V
0.144196 0.144735 0.144546 V
0.849723 0.851053 0.849118 V
0.352844 0.350947 0.349946 V
0.952329 0.247500 0.544197 S
0.446470 0.044531 0.748569 S
0.547748 0.950869 0.246267 S
0.747355 0.449218 0.045371 S
0.247284 0.545904 0.950272 S
0.044326 0.748116 0.450001 S
0.404546 0.564774 0.768314 O
0.900947 0.265328 0.072112 O
0.776734 0.407992 0.560886 O
0.068505 0.901935 0.265974 O
0.566447 0.770710 0.405188 O
0.262794 0.069433 0.902673 O
0.728225 0.926956 0.090098 O
0.220004 0.587113 0.434608 O
0.091187 0.729999 0.927559 O
0.432793 0.223915 0.589718 O
0.928608 0.092360 0.727907 O
0.588061 0.436948 0.223758 O
0.983399 0.193204 0.399806 O
0.476996 0.897478 0.697440 O
0.397804 0.986456 0.197016 O
0.697331 0.477468 0.899277 O
0.192113 0.400024 0.985732 O
0.892317 0.703454 0.486836 O
0.104390 0.291237 0.509786 O
0.591997 0.004956 0.806499 O
0.518197 0.098831 0.294002 O
0.805644 0.594591 0.004968 O
0.299719 0.512767 0.096881 O
0.015025 0.802486 0.593804 O
