Co6 P4 O16                              
   1.00000000000000     
     4.3398834917734845   -0.0000001372261509   -2.5877606477962534
     0.0000000515958768    8.3155555125155178   -0.0000001547488059
     0.0143636247313478    0.0000007186451263    8.7633214375178845
   Co   P    O 
     6     4    16
Direct
  0.9999296808319258  0.5000398834596851  0.5000294369825298
  0.9999296896439347  0.9999601099313651  0.0000294423926022
  0.0207386707419204  0.1403171883034560  0.6141502450996512
  0.9794063354038727  0.6403917216210004  0.8858691221356167
  0.9794063453891297  0.8596082625856027  0.3858691202250952
  0.0207386927131239  0.3596828308656157  0.1141502485460038
  0.3409589560002502  0.8060129703150949  0.8026479074154906
  0.6590610734616789  0.3060186736729946  0.6973454313655338
  0.6590611029808215  0.1939812792873283  0.1973455004383169
  0.3409589849231054  0.6939870738463583  0.3026479858060185
  0.2738541307499034  0.8572743097707161  0.9469480205686480
  0.7261239240519970  0.3573896897703861  0.5530663517330154
  0.7261239508734931  0.1426102998350061  0.0530663502904503
  0.2738541250803408  0.6427256949037243  0.4469480090634121
  0.6878867472534154  0.8045510803332760  0.8742674230291243
  0.3121542087743947  0.3044561405344126  0.6257262032298527
  0.3121541930373937  0.1955438579903728  0.1257262112128359
  0.6878867182322708  0.6954489227502023  0.3742674307320542
  0.1893706485034485  0.9215957834839230  0.6433183656124228
  0.8104992720879878  0.4216394811971895  0.8566564955324054
  0.8104991755956803  0.0783605482808838  0.3566564584202609
  0.1893705541239470  0.5784041977925511  0.1433183294700555
  0.1916361948105560  0.6374903555538864  0.7431833411924558
  0.8083802178704076  0.1375015542983036  0.7567916127921137
  0.8083802185524576  0.3624984634920096  0.2567916094503104
  0.1916361883125433  0.8625096261246625  0.2431833472637379
 
  0.00000000E+00  0.00000000E+00  0.00000000E+00
  0.00000000E+00  0.00000000E+00  0.00000000E+00
  0.00000000E+00  0.00000000E+00  0.00000000E+00
  0.00000000E+00  0.00000000E+00  0.00000000E+00
  0.00000000E+00  0.00000000E+00  0.00000000E+00
  0.00000000E+00  0.00000000E+00  0.00000000E+00
  0.00000000E+00  0.00000000E+00  0.00000000E+00
  0.00000000E+00  0.00000000E+00  0.00000000E+00
  0.00000000E+00  0.00000000E+00  0.00000000E+00
  0.00000000E+00  0.00000000E+00  0.00000000E+00
  0.00000000E+00  0.00000000E+00  0.00000000E+00
  0.00000000E+00  0.00000000E+00  0.00000000E+00
  0.00000000E+00  0.00000000E+00  0.00000000E+00
  0.00000000E+00  0.00000000E+00  0.00000000E+00
  0.00000000E+00  0.00000000E+00  0.00000000E+00
  0.00000000E+00  0.00000000E+00  0.00000000E+00
  0.00000000E+00  0.00000000E+00  0.00000000E+00
  0.00000000E+00  0.00000000E+00  0.00000000E+00
  0.00000000E+00  0.00000000E+00  0.00000000E+00
  0.00000000E+00  0.00000000E+00  0.00000000E+00
  0.00000000E+00  0.00000000E+00  0.00000000E+00
  0.00000000E+00  0.00000000E+00  0.00000000E+00
  0.00000000E+00  0.00000000E+00  0.00000000E+00
  0.00000000E+00  0.00000000E+00  0.00000000E+00
  0.00000000E+00  0.00000000E+00  0.00000000E+00
  0.00000000E+00  0.00000000E+00  0.00000000E+00
