Co6 P4 O16
1.0
4.339838 0.000000 -2.607638
0.000000 8.361000 0.000000
0.000000 0.000000 8.788000
Co P O
6 4 16
direct
0.000000 0.500000 0.500000 Co2+
0.000000 0.000000 0.000000 Co2+
0.020200 0.140900 0.614200 Co2+
0.979800 0.640900 0.885800 Co2+
0.979800 0.859100 0.385800 Co2+
0.020200 0.359100 0.114200 Co2+
0.340400 0.806200 0.802400 P5+
0.659600 0.306200 0.697600 P5+
0.659600 0.193800 0.197600 P5+
0.340400 0.693800 0.302400 P5+
0.272900 0.857800 0.945500 O2-
0.727100 0.357800 0.554500 O2-
0.727100 0.142200 0.054500 O2-
0.272900 0.642200 0.445500 O2-
0.688100 0.804200 0.875000 O2-
0.311900 0.304200 0.625000 O2-
0.311900 0.195800 0.125000 O2-
0.688100 0.695800 0.375000 O2-
0.190200 0.921400 0.643200 O2-
0.809800 0.421400 0.856800 O2-
0.809800 0.078600 0.356800 O2-
0.190200 0.578600 0.143200 O2-
0.190300 0.638200 0.743500 O2-
0.809700 0.138200 0.756500 O2-
0.809700 0.361800 0.256500 O2-
0.190300 0.861800 0.243500 O2-
