Ca1 Fe4 S6 O24                          
   1.00000000000000     
     7.5596790000000000    0.2200500000000000    4.6003400000000001
     2.6966260000000002    7.0568249999999999    4.6042300000000003
     0.3247510000000000    0.2335260000000000    8.8478429999999992
   Ca   Fe   S    O 
     1     4     6    24
Direct
  0.3727298992423505  0.6338119564539355  0.5154063622684297
  0.6561645062340518  0.6384985613336565  0.6540930358041853
  0.1452663901374297  0.1533493628324653  0.1393729689249398
  0.8408281344803805  0.8552460205135681  0.8477359145341046
  0.3495360614280758  0.3484538030090027  0.3604467494500031
  0.9642689961817880  0.2441811068522911  0.5310727004184976
  0.4534057890628861  0.0500561493658203  0.7491062125435158
  0.5428322259726683  0.9569267294982531  0.2497663334967389
  0.7363621381080653  0.4665852763284979  0.0528514808384910
  0.2498442595203797  0.5315660864129409  0.9618459053115043
  0.0279684696174736  0.7566459318860485  0.4453427454925684
  0.3965336142273255  0.6055582964545509  0.7745249103231497
  0.9335653022283227  0.3288795561681752  0.0287960201143994
  0.7727380354295744  0.3731312988172766  0.6150210044642357
  0.0024148751045875  0.9576267109176575  0.3209864789182414
  0.6010175582108293  0.7624023397295345  0.3978285902007477
  0.3094200976108407  0.0215063993780759  0.9469065650689119
  0.6896145748457050  0.9651896861675342  0.0593609910784099
  0.2298874071040818  0.6304690348172719  0.3671085667133334
  0.0609873650103973  0.6752931506169978  0.9547782069565225
  0.3747968184205496  0.2479907233211562  0.6185828213971196
  0.9863335250920029  0.0389917054855241  0.6518139523847886
  0.5998849863989355  0.3954573993327680  0.2474325344963084
  0.9883203824378656  0.2820964359089882  0.3363122263305602
  0.4972535339394542  0.9038519805175411  0.6866918423685364
  0.3583688075200354  0.9689017168034683  0.2677157130726190
  0.6829622727201402  0.4948770921431859  0.9068245627487317
  0.2794604717292341  0.3494881467252747  0.9648065158061192
  0.8955225987828231  0.6966361435187107  0.4615841091170003
  0.1148571404446099  0.2785043173565298  0.5204472717732288
  0.6296374024630361  0.0377716459535491  0.7412653310237441
  0.5133023874316253  0.1068370613524634  0.2958113052745012
  0.7186825693219355  0.6524793160615060  0.0314517077016320
  0.2802475261501189  0.5035199603918062  0.1213176157469116
  0.0104430983636410  0.7211445522802457  0.6390208722314995
 
             NaN             NaN             NaN
             NaN             NaN             NaN
             NaN             NaN             NaN
             NaN             NaN             NaN
             NaN             NaN             NaN
             NaN             NaN             NaN
             NaN             NaN             NaN
             NaN             NaN             NaN
             NaN             NaN             NaN
             NaN             NaN             NaN
             NaN             NaN             NaN
             NaN             NaN             NaN
             NaN             NaN             NaN
             NaN             NaN             NaN
             NaN             NaN             NaN
             NaN             NaN             NaN
             NaN             NaN             NaN
             NaN             NaN             NaN
             NaN             NaN             NaN
             NaN             NaN             NaN
             NaN             NaN             NaN
             NaN             NaN             NaN
             NaN             NaN             NaN
             NaN             NaN             NaN
             NaN             NaN             NaN
             NaN             NaN             NaN
             NaN             NaN             NaN
             NaN             NaN             NaN
             NaN             NaN             NaN
             NaN             NaN             NaN
             NaN             NaN             NaN
             NaN             NaN             NaN
             NaN             NaN             NaN
             NaN             NaN             NaN
             NaN             NaN             NaN
