Cr3 S4                                  
   1.00000000000000     
    -0.0017447029493788    3.4791361832645600   -0.0001032378487502
     6.0456841307311393   -0.0030102663342890   -0.1578190148600541
    -3.0266650183595405   -1.7378974057794794   -5.6211226948898343
   Cr   S 
     3     4
Direct
  0.9998840906186002  0.0000728282961668  0.0000113381057251
  0.7371700874234212  0.7212938459039602  0.4731796782650148
  0.2629497649081969  0.2786673941363189  0.5268602575557984
  0.6358009278034222  0.9829743077557270  0.2720440797424044
  0.3642102501590193  0.0170528421248237  0.7280113852893881
  0.1271577335426238  0.4505681309369552  0.2537297262374802
  0.8728271455447094  0.5493706508460481  0.7461635348041890
 
  0.00000000E+00  0.00000000E+00  0.00000000E+00
  0.00000000E+00  0.00000000E+00  0.00000000E+00
  0.00000000E+00  0.00000000E+00  0.00000000E+00
  0.00000000E+00  0.00000000E+00  0.00000000E+00
  0.00000000E+00  0.00000000E+00  0.00000000E+00
  0.00000000E+00  0.00000000E+00  0.00000000E+00
  0.00000000E+00  0.00000000E+00  0.00000000E+00
