Ca4 Co4 P6 O24                          
   1.00000000000000     
     2.5729570000000002    7.2678649999999996    4.3739460000000001
    -0.0012230000000000    0.0217070000000000    8.6706559999999993
     7.6130870000000002    0.0555770000000000    4.2036059999999997
   Ca   Co   P    O 
     4     4     6    24
Direct
  0.4097107214937151  0.6320593058971631  0.5029667419274950
  0.9337999345812946  0.0168127651272390  0.0235073477253282
  0.3695618212738498  0.7488996742681358  0.0916227010223620
  0.1066928892559556  0.3892315624389693  0.7555600057535697
  0.6506290337219706  0.6275892017042217  0.6594565857588190
  0.1457705721497656  0.1480871260568913  0.1584735137411341
  0.8539323138968302  0.8652062908679190  0.8353203188653425
  0.3427640386474468  0.3348883829880036  0.3517837395064976
  0.2413557115778618  0.5534192179513214  0.9555954728051832
  0.0351928424552296  0.7564058507218141  0.4548909279014440
  0.9468512080491881  0.2571438933341466  0.5529910087660396
  0.4604768980254463  0.0382708294975477  0.7483341942512093
  0.5423808707145035  0.9502828660556485  0.2435047634275757
  0.7555194367978219  0.4572263225644739  0.0359887917993566
  0.5595760569830642  0.8091843233445882  0.4325590506121767
  0.2655866311337869  0.0738121511586059  0.9114726547175483
  0.4176048267566178  0.5591852691694142  0.7813777626846493
  0.9128920329266061  0.2699773254768415  0.0753804119412202
  0.7689646876846974  0.4285545982096636  0.5522505992646294
  0.0609430355121161  0.9008126388523652  0.2584061243275070
  0.9062147529782613  0.0987724500000696  0.7382682244578105
  0.5845009598012411  0.4856205324751541  0.2078914752124587
  0.7270923189540719  0.8942312586122249  0.0918661955010056
  0.2212652906878465  0.5848158604367589  0.4340295465302572
  0.0910517228658507  0.7455297703995599  0.9193937253297197
  0.4290415014435437  0.2076708986840061  0.5788638861640620
  0.1928798245959842  0.3958711650499975  0.9767051926341317
  0.8752794854134045  0.6951435223534991  0.5273200754653538
  0.0159441888460588  0.1983515373223860  0.3854363668678964
  0.4924916274648404  0.8438531767528918  0.7543322014977843
  0.3864844879768073  0.9287709527045863  0.2269574984475771
  0.7175816621621036  0.4463344457615106  0.8875046304866616
  0.2750800429963732  0.5249031601616915  0.1255775152609207
  0.0382565285580573  0.8127349582579919  0.5946974985843418
  0.0975695491791928  0.2992457047816275  0.5505828425786614
  0.6096375657914967  0.0180419927967164  0.8002196390612588
  0.5032295448720376  0.1469184015839407  0.2285549025447157
  0.8354313013453148  0.6153496777854198  0.9392973723565502
 
             NaN             NaN             NaN
             NaN             NaN             NaN
             NaN             NaN             NaN
             NaN             NaN             NaN
             NaN             NaN             NaN
             NaN             NaN             NaN
             NaN             NaN             NaN
             NaN             NaN             NaN
             NaN             NaN             NaN
             NaN             NaN             NaN
             NaN             NaN             NaN
             NaN             NaN             NaN
             NaN             NaN             NaN
             NaN             NaN             NaN
             NaN             NaN             NaN
             NaN             NaN             NaN
             NaN             NaN             NaN
             NaN             NaN             NaN
             NaN             NaN             NaN
             NaN             NaN             NaN
             NaN             NaN             NaN
             NaN             NaN             NaN
             NaN             NaN             NaN
             NaN             NaN             NaN
             NaN             NaN             NaN
             NaN             NaN             NaN
             NaN             NaN             NaN
             NaN             NaN             NaN
             NaN             NaN             NaN
             NaN             NaN             NaN
             NaN             NaN             NaN
             NaN             NaN             NaN
             NaN             NaN             NaN
             NaN             NaN             NaN
             NaN             NaN             NaN
             NaN             NaN             NaN
             NaN             NaN             NaN
             NaN             NaN             NaN
