Ca4 Co4 P6 O24                          
   1.00000000000000     
     2.5729570000000002    7.2678649999999996    4.3739460000000001
    -0.0012230000000000    0.0217070000000000    8.6706559999999993
     7.6130870000000002    0.0555770000000000    4.2036059999999997
   Ca   Co   P    O 
     4     4     6    24
Direct
  0.4097024051174573  0.6320737838816106  0.5029724917220294
  0.9338205599262329  0.0168159253364354  0.0234783701782381
  0.3695678449679774  0.7489011527402928  0.0915937732585845
  0.1067022078081369  0.3892205257999073  0.7555834708638592
  0.6506011955197478  0.6275824282250749  0.6594866296597404
  0.1458699046697512  0.1481278760705453  0.1584726132204336
  0.8539423939580930  0.8652042686774918  0.8353311191388878
  0.3428098773329722  0.3348748173376374  0.3516973779396632
  0.2413599075773404  0.5534424571203799  0.9555605796518813
  0.0352079793517845  0.7564449805131506  0.4548725864692346
  0.9468597416103917  0.2571091939799061  0.5530145304820587
  0.4604718376853239  0.0382754268406190  0.7483409371443821
  0.5423728313743504  0.9502691253691102  0.2435220513791318
  0.7554828169507541  0.4572351225266772  0.0359847755783780
  0.5595541497053828  0.8091786679062049  0.4325777165760696
  0.2655884011752471  0.0738132965961123  0.9114813396681937
  0.4176237775707735  0.5591859267344496  0.7813855500860554
  0.9128744138655952  0.2699683028641967  0.0753701698544245
  0.7689653306202384  0.4285847402668299  0.5522504610252464
  0.0609326581285274  0.9008036303025948  0.2584007562989570
  0.9062136779989157  0.0987730513657349  0.7382665135978926
  0.5844630442488794  0.4856112220768699  0.2078785114565902
  0.7270869305252188  0.8942319990593994  0.0918709809400854
  0.2212470182738803  0.5848438640448795  0.4340394961183744
  0.0910600390720288  0.7455272334341744  0.9193617108305644
  0.4290672580987209  0.2076451926130088  0.5789288783827035
  0.1928776165023252  0.3958754787474119  0.9766768599246821
  0.8752515429581087  0.6951531360900740  0.5273220389740045
  0.0159893019091033  0.1983350518701852  0.3854440153226434
  0.4924939780152222  0.8438320807156967  0.7543474834765429
  0.3865029086736908  0.9287637226375736  0.2269596239972674
  0.7175517315783901  0.4463435020593149  0.8874892858405762
  0.2750772695876059  0.5249151033000921  0.1255504069253867
  0.0382289182378546  0.8127413093008732  0.5947229112538914
  0.0975796236642046  0.2992125838168373  0.5505938205633299
  0.6096334568965753  0.0180224520298509  0.8002495553691736
  0.5032146132005881  0.1469299742611381  0.2285333508718794
  0.8353887554856668  0.6153404546908103  0.9393287616455229
 
             NaN             NaN             NaN
             NaN             NaN             NaN
             NaN             NaN             NaN
             NaN             NaN             NaN
             NaN             NaN             NaN
             NaN             NaN             NaN
             NaN             NaN             NaN
             NaN             NaN             NaN
             NaN             NaN             NaN
             NaN             NaN             NaN
             NaN             NaN             NaN
             NaN             NaN             NaN
             NaN             NaN             NaN
             NaN             NaN             NaN
             NaN             NaN             NaN
             NaN             NaN             NaN
             NaN             NaN             NaN
             NaN             NaN             NaN
             NaN             NaN             NaN
             NaN             NaN             NaN
             NaN             NaN             NaN
             NaN             NaN             NaN
             NaN             NaN             NaN
             NaN             NaN             NaN
             NaN             NaN             NaN
             NaN             NaN             NaN
             NaN             NaN             NaN
             NaN             NaN             NaN
             NaN             NaN             NaN
             NaN             NaN             NaN
             NaN             NaN             NaN
             NaN             NaN             NaN
             NaN             NaN             NaN
             NaN             NaN             NaN
             NaN             NaN             NaN
             NaN             NaN             NaN
             NaN             NaN             NaN
             NaN             NaN             NaN
