Cr4 S12                                 
   1.00000000000000     
     4.6878288930986916    0.0029410458003153   -0.0026832950689453
     0.0011059930012893    5.7504158679390240    0.0026696754559317
    -0.0011512742467376    0.0070152247190213   10.6814374788156545
   Cr   S 
     4    12
Direct
  0.5000512427013827  0.0002351244847186  0.8342760103321892
 -0.0001795647057179  0.4998719220947623  0.6666492376400285
  0.4997744193502072 -0.0001149604520090  0.1637926288793047
  0.0007981859627250  0.4996592692379586  0.3360078752916291
  0.6693873021874961  0.6149444965855198  0.8256251244126227
  0.3278505165266606  0.3862457475789446  0.8272308427759465
  0.1757506523080563  0.8913595429921820  0.6759507030263612
  0.8245409787801367  0.1085817868694464  0.6768341721852227
  0.3267265910731166  0.3905143397796140  0.1728775934608561
  0.6748565875835369  0.6093253836771940  0.1723693675899787
  0.8264684834011954  0.1091360158116349  0.3266054096834201
  0.1743455430270323  0.8903531865031222  0.3269933919584871
  0.1799121163614782  0.8936254177829993 -0.0034645143744360
  0.8190293206502239  0.1061791248589849 -0.0030479897513337
  0.6759912394654050  0.6098360958546979  0.5003667847487950
  0.3246963853270584  0.3902475063402224  0.5009333621409214
 
  0.00000000E+00  0.00000000E+00  0.00000000E+00
  0.00000000E+00  0.00000000E+00  0.00000000E+00
  0.00000000E+00  0.00000000E+00  0.00000000E+00
  0.00000000E+00  0.00000000E+00  0.00000000E+00
  0.00000000E+00  0.00000000E+00  0.00000000E+00
  0.00000000E+00  0.00000000E+00  0.00000000E+00
  0.00000000E+00  0.00000000E+00  0.00000000E+00
  0.00000000E+00  0.00000000E+00  0.00000000E+00
  0.00000000E+00  0.00000000E+00  0.00000000E+00
  0.00000000E+00  0.00000000E+00  0.00000000E+00
  0.00000000E+00  0.00000000E+00  0.00000000E+00
  0.00000000E+00  0.00000000E+00  0.00000000E+00
  0.00000000E+00  0.00000000E+00  0.00000000E+00
  0.00000000E+00  0.00000000E+00  0.00000000E+00
  0.00000000E+00  0.00000000E+00  0.00000000E+00
  0.00000000E+00  0.00000000E+00  0.00000000E+00
