Ca1 Fe4 S6 O24                          
   1.00000000000000     
     7.5783899999999997    0.1828480000000000    4.5485530000000001
     2.6593680000000002    7.0924800000000001    4.5664860000000003
     0.2632410000000000    0.2063500000000000    8.8398529999999997
   Ca   Fe   S    O 
     1     4     6    24
Direct
  0.2680394600868097  0.7722900495430852  0.5539444923137575
  0.6644270838568801  0.6319645876347553  0.6452551009572590
  0.1426748947955470  0.1533470410806997  0.1326135647711827
  0.8295762155662881  0.8495237972617006  0.8575286120974657
  0.3559991491480066  0.3502053756222460  0.3607636915775294
  0.9694161609527570  0.2450314013712697  0.5215480792778240
  0.4496395746328160  0.0359224727537124  0.7527004664143134
  0.5488184337143623  0.9650852580374826  0.2443499513561386
  0.7412964023542888  0.4594593208417995  0.0536128204424230
  0.2573463012381448  0.5287582876147768  0.9544137711619336
  0.0313489349192562  0.7440411668253506  0.4549509517714541
  0.4194481540400257  0.5758708695542599  0.7739491846930298
  0.9293712248406798  0.3070794143736198  0.0340057594848917
  0.7869284925398599  0.3695075272863593  0.6143852135250513
  0.0218473206413445  0.9424188424299299  0.3352214202660947
  0.5858333260080468  0.7736648904558148  0.3997394694965357
  0.3092099515864561  0.0102940720770633  0.9497338731774461
  0.6986632421303749  0.9622950536278937  0.0598546138835595
  0.2318773116457145  0.6163400736310651  0.3930551968514387
  0.0865709421523804  0.6957244102956793  0.9167028693326199
  0.3762312906131439  0.2293557567002781  0.6231408190180567
  0.9891311316974237  0.0387921411853048  0.6412479029795323
  0.5999067199520395  0.3946060742785009  0.2406074031638779
  0.9810113714139574  0.2852535251676240  0.3324243894402433
  0.4868112865979587  0.8897467553913115  0.6930479607171520
  0.3602695111293375  0.9992476062176148  0.2503969014700305
  0.6859002586748504  0.5095268463467909  0.8993402466651456
  0.2572296309691303  0.3582303753763013  0.9655656289174658
  0.8994612958202538  0.6980717152038114  0.4502988420308425
  0.1283274597632890  0.2707339285178195  0.5056205621350944
  0.6292561228024892  0.0164340668432527  0.7464358309772872
  0.5308037485609791  0.1098531793605963  0.2890231058142860
  0.7454221878243465  0.6284166638029909  0.0446803532542405
  0.2784852161368630  0.5030530366013202  0.1183979435657987
  0.9892242133684679  0.7132459062940960  0.6547456680413812
 
             NaN             NaN             NaN
             NaN             NaN             NaN
             NaN             NaN             NaN
             NaN             NaN             NaN
             NaN             NaN             NaN
             NaN             NaN             NaN
             NaN             NaN             NaN
             NaN             NaN             NaN
             NaN             NaN             NaN
             NaN             NaN             NaN
             NaN             NaN             NaN
             NaN             NaN             NaN
             NaN             NaN             NaN
             NaN             NaN             NaN
             NaN             NaN             NaN
             NaN             NaN             NaN
             NaN             NaN             NaN
             NaN             NaN             NaN
             NaN             NaN             NaN
             NaN             NaN             NaN
             NaN             NaN             NaN
             NaN             NaN             NaN
             NaN             NaN             NaN
             NaN             NaN             NaN
             NaN             NaN             NaN
             NaN             NaN             NaN
             NaN             NaN             NaN
             NaN             NaN             NaN
             NaN             NaN             NaN
             NaN             NaN             NaN
             NaN             NaN             NaN
             NaN             NaN             NaN
             NaN             NaN             NaN
             NaN             NaN             NaN
             NaN             NaN             NaN
