Ca4 V4 P6 O24                           
   1.00000000000000     
     2.5806170000000002    7.2643230000000001    4.3918320000000000
    -0.0062330000000000    0.0698130000000000    8.7678239999999992
     7.6608499999999999    0.0726230000000000    4.2606859999999998
   Ca   V    P    O 
     4     4     6    24
Direct
  0.5035899707662574  0.5146589705313842  0.4951090852248671
  0.9577332140534593  0.0091744996767262  0.0186716427519461
  0.3865746002375804  0.7512239637648364  0.0855479251307347
  0.0973297641883194  0.4052086324917312  0.7525981994343379
  0.6479659083177398  0.6433748078605411  0.6402944764227448
  0.1496760758808945  0.1454911407724373  0.1538995475030510
  0.8474982844316395  0.8655822605842521  0.8523772072141442
  0.3416142474024009  0.3507165382403535  0.3524443162234829
  0.2418050667202081  0.5581857193606924  0.9471753321429393
  0.0389485686962927  0.7553764146947763  0.4509409458695835
  0.9543330109126918  0.2520891224562366  0.5558477816088161
  0.4545783682082943  0.0512726457607910  0.7434099597093748
  0.5328208665689586  0.9469403268163712  0.2516152005828011
  0.7463400264132055  0.4553948505587255  0.0465672651303574
  0.5658458884878463  0.7711080936329795  0.4157180367711645
  0.2586895945578934  0.0768508424391508  0.9057031605345160
  0.4090685484130795  0.5744409007035282  0.7665258513669898
  0.9140231264894985  0.2770431757552134  0.0703037534969614
  0.7697376902790988  0.4171857825603938  0.5599996171451230
  0.0744561855381291  0.9063206370382133  0.2604997650881937
  0.9239458302966139  0.0964512900552025  0.7404396453725831
  0.5723287657776764  0.4410443930264018  0.2217446738040103
  0.7152658574849955  0.9398957249672916  0.0881756739396701
  0.2312198296231150  0.5896787932558434  0.4275053315458519
  0.0775846446327243  0.7408647796304000  0.9324237493606897
  0.4198096231656560  0.2384275956529778  0.5870519282383485
  0.1948950437349032  0.3991781841234293  0.9722680778326396
  0.8850300274272075  0.7023967526977256  0.4859539272750696
  0.0167009746411087  0.1942575322649509  0.3922273432661220
  0.4888704778618882  0.8765176169152441  0.7176821207544061
  0.3903724241276713  0.9395145067340694  0.2049933666502069
  0.7269567752753479  0.4764722339112778  0.8734151196268554
  0.2885244149461879  0.5299358041143950  0.1083627353997094
  0.0120592274708631  0.7873817027911151  0.6190512496029120
  0.0996510217869181  0.3100261693088179  0.5437216372485898
  0.6024372417393640  0.0241204380356623  0.8001409213958922
  0.4651829187002881  0.1194262692062541  0.2972367265907901
  0.7743416083107963  0.6268829022694352  0.0142481334307896
 
             NaN             NaN             NaN
             NaN             NaN             NaN
             NaN             NaN             NaN
             NaN             NaN             NaN
             NaN             NaN             NaN
             NaN             NaN             NaN
             NaN             NaN             NaN
             NaN             NaN             NaN
             NaN             NaN             NaN
             NaN             NaN             NaN
             NaN             NaN             NaN
             NaN             NaN             NaN
             NaN             NaN             NaN
             NaN             NaN             NaN
             NaN             NaN             NaN
             NaN             NaN             NaN
             NaN             NaN             NaN
             NaN             NaN             NaN
             NaN             NaN             NaN
             NaN             NaN             NaN
             NaN             NaN             NaN
             NaN             NaN             NaN
             NaN             NaN             NaN
             NaN             NaN             NaN
             NaN             NaN             NaN
             NaN             NaN             NaN
             NaN             NaN             NaN
             NaN             NaN             NaN
             NaN             NaN             NaN
             NaN             NaN             NaN
             NaN             NaN             NaN
             NaN             NaN             NaN
             NaN             NaN             NaN
             NaN             NaN             NaN
             NaN             NaN             NaN
             NaN             NaN             NaN
             NaN             NaN             NaN
             NaN             NaN             NaN
