P16 O36                                 
   1.00000000000000     
     8.3395225755900544   -0.0482977688027558    5.3324170135988931
     2.8953127147940796    7.8209326162294355    5.3324168628254602
    -0.0697458903012870   -0.0482523198608626    9.8983774117452530
   P    O 
    16    36
Direct
  0.9267457094824749  0.9267579612502956  0.9267414272846679
  0.0732509473390763  0.0732451214206264  0.0732570526879286
  0.4267599705792264  0.4267448617034475  0.4267411483466148
  0.5732455009712965  0.5732485252298289  0.5732589198470279
  0.0212036141874492  0.7700671999650623  0.6966317404894085
  0.7700781419646461  0.6966392347227881  0.0211926777853719
  0.6966294620437452  0.0211990249697322  0.7700707342372013
  0.9788045290184257  0.2299298223697193  0.3033615520941808
  0.2299342521703451  0.3033696497826028  0.9787930216927236
  0.3033546805479261  0.9788102784320500  0.2299265669385306
  0.2700719686752535  0.5211979967010478  0.1966378108411035
  0.1966323336210820  0.2700753942572902  0.5211986700590217
  0.5212011813353854  0.1966292273835393  0.2700672034452367
  0.7299328482175227  0.4787987146659134  0.8033708589761588
  0.8033608070802671  0.7299299491916216  0.4788013238059889
  0.4788102345373559  0.8033556347866480  0.7299244753427203
  0.0631378690507063  0.8413607911178076  0.7729098065223923
  0.8413600067177498  0.7729043945844083  0.0631382305594386
  0.7729091334766167  0.0631377384028937  0.8413636039250605
  0.9368609385735311  0.1586407619828236  0.2270923412028409
  0.1586388396460805  0.2270907383128815  0.9368624952077909
  0.2270913559293390  0.9368615693632663  0.1586397675516551
  0.3413628257246941  0.5631367436642165  0.2729099049767356
  0.2729064319041186  0.3413602966821756  0.5631378310198656
  0.5631391729615913  0.2729079254262459  0.3413618095186237
  0.6586407932965415  0.4368598721882506  0.7270951499935947
  0.7270912317716807  0.6586364408807768  0.4368651125706791
  0.4368627489855044  0.7270896185648823  0.6586389777620880
  0.8615505794272025  0.9272286278611830  0.6419044780269303
  0.9272290676295398  0.6419014605332194  0.8615478913680050
  0.6419049640313332  0.8615446875380428  0.9272302210949022
  0.1384516462592913  0.0727716728283454  0.3580959709226974
  0.0727743291278600  0.3580976302874888  0.1384480844624676
  0.3580976797687399  0.1384484532893993  0.0727724539504422
  0.4272288057781992  0.3615524248522632  0.1419026311619831
  0.1419020889886795  0.4272317205710578  0.3615460399898680
  0.3615456477155803  0.1419059765179185  0.4272277222735141
  0.5727706020174139  0.6384540614594343  0.8580954322013454
  0.8580961865407630  0.5727763649906947  0.6384495812581150
  0.6384482334226362  0.8580984758938257  0.5727706822934238
  0.1536256707942130  0.7038158779914809  0.5627256968826799
  0.7038123189838359  0.5627116403063752  0.1536317795973545
  0.5627260669409537  0.1536221289899942  0.7038200658859211
  0.8463725314783801  0.2961874920341643  0.4372785252899121
  0.2961891882562213  0.4372698561615778  0.8463770050104031
  0.4372828459884275  0.8463636205908074  0.2961890078594465
  0.2038155517477733  0.6536326529721848  0.0627195843802184
  0.0627168790712247  0.2038174325081954  0.6536245900825648
  0.6536205248867688  0.0627259364238384  0.2038189532377004
  0.7961837834694379  0.3463802950788306  0.9372758192701625
  0.9372746063150501  0.7961923868634315  0.3463703108617437
  0.3463626715508710  0.9372836354534186  0.7961872579535694
 
  0.00000000E+00  0.00000000E+00  0.00000000E+00
  0.00000000E+00  0.00000000E+00  0.00000000E+00
  0.00000000E+00  0.00000000E+00  0.00000000E+00
  0.00000000E+00  0.00000000E+00  0.00000000E+00
  0.00000000E+00  0.00000000E+00  0.00000000E+00
  0.00000000E+00  0.00000000E+00  0.00000000E+00
  0.00000000E+00  0.00000000E+00  0.00000000E+00
  0.00000000E+00  0.00000000E+00  0.00000000E+00
  0.00000000E+00  0.00000000E+00  0.00000000E+00
  0.00000000E+00  0.00000000E+00  0.00000000E+00
  0.00000000E+00  0.00000000E+00  0.00000000E+00
  0.00000000E+00  0.00000000E+00  0.00000000E+00
  0.00000000E+00  0.00000000E+00  0.00000000E+00
  0.00000000E+00  0.00000000E+00  0.00000000E+00
  0.00000000E+00  0.00000000E+00  0.00000000E+00
  0.00000000E+00  0.00000000E+00  0.00000000E+00
  0.00000000E+00  0.00000000E+00  0.00000000E+00
  0.00000000E+00  0.00000000E+00  0.00000000E+00
  0.00000000E+00  0.00000000E+00  0.00000000E+00
  0.00000000E+00  0.00000000E+00  0.00000000E+00
  0.00000000E+00  0.00000000E+00  0.00000000E+00
  0.00000000E+00  0.00000000E+00  0.00000000E+00
  0.00000000E+00  0.00000000E+00  0.00000000E+00
  0.00000000E+00  0.00000000E+00  0.00000000E+00
  0.00000000E+00  0.00000000E+00  0.00000000E+00
  0.00000000E+00  0.00000000E+00  0.00000000E+00
  0.00000000E+00  0.00000000E+00  0.00000000E+00
  0.00000000E+00  0.00000000E+00  0.00000000E+00
  0.00000000E+00  0.00000000E+00  0.00000000E+00
  0.00000000E+00  0.00000000E+00  0.00000000E+00
  0.00000000E+00  0.00000000E+00  0.00000000E+00
  0.00000000E+00  0.00000000E+00  0.00000000E+00
  0.00000000E+00  0.00000000E+00  0.00000000E+00
  0.00000000E+00  0.00000000E+00  0.00000000E+00
  0.00000000E+00  0.00000000E+00  0.00000000E+00
  0.00000000E+00  0.00000000E+00  0.00000000E+00
  0.00000000E+00  0.00000000E+00  0.00000000E+00
  0.00000000E+00  0.00000000E+00  0.00000000E+00
  0.00000000E+00  0.00000000E+00  0.00000000E+00
  0.00000000E+00  0.00000000E+00  0.00000000E+00
  0.00000000E+00  0.00000000E+00  0.00000000E+00
  0.00000000E+00  0.00000000E+00  0.00000000E+00
  0.00000000E+00  0.00000000E+00  0.00000000E+00
  0.00000000E+00  0.00000000E+00  0.00000000E+00
  0.00000000E+00  0.00000000E+00  0.00000000E+00
  0.00000000E+00  0.00000000E+00  0.00000000E+00
  0.00000000E+00  0.00000000E+00  0.00000000E+00
  0.00000000E+00  0.00000000E+00  0.00000000E+00
  0.00000000E+00  0.00000000E+00  0.00000000E+00
  0.00000000E+00  0.00000000E+00  0.00000000E+00
  0.00000000E+00  0.00000000E+00  0.00000000E+00
  0.00000000E+00  0.00000000E+00  0.00000000E+00
