Titanium - alpha'                       
   1.00000000000000     
     2.9720489942568236   -0.0000299076531890    0.0000000060934868
    -1.4860504005421320    2.5738551594067820    0.0000000016545271
     0.0000000094020559    0.0000000090907598    4.7498585718010418
   Ti
     2
Direct
  0.3333312074829395  0.6666688637521281  0.2500000004141210
  0.6666687625170580  0.3333311362478719  0.7499999995858790
 
  0.00000000E+00  0.00000000E+00  0.00000000E+00
  0.00000000E+00  0.00000000E+00  0.00000000E+00
