Fe4 P16 O44
1.0
-5.775945 -6.569208 2.883875
-5.771980 6.569208 3.007705
0.000000 0.000000 -10.693000
Fe P O
4 16 44
direct
0.227790 0.769830 0.500800 Fe2+
0.772210 0.230170 0.499200 Fe2+
0.744350 0.721090 0.979680 Fe2+
0.255650 0.278910 0.020320 Fe2+
0.584970 0.390530 0.715430 P5+
0.415030 0.609470 0.284570 P5+
0.089130 0.946050 0.754090 P5+
0.910870 0.053950 0.245910 P5+
0.763360 0.923560 0.611890 P5+
0.236640 0.076440 0.388110 P5+
0.559420 0.913660 0.771620 P5+
0.440580 0.086340 0.228380 P5+
0.096700 0.727260 0.911290 P5+
0.903300 0.272740 0.088710 P5+
0.568450 0.250050 0.926090 P5+
0.431550 0.749950 0.073910 P5+
0.262990 0.413770 0.557270 P5+
0.737010 0.586230 0.442730 P5+
0.097950 0.404790 0.759240 P5+
0.902050 0.595210 0.240760 P5+
0.946500 0.310500 0.693700 O2-
0.053500 0.689500 0.306300 O2-
0.812800 0.905200 0.180300 O2-
0.187200 0.094800 0.819700 O2-
0.294400 0.481000 0.192200 O2-
0.705600 0.519000 0.807800 O2-
0.816700 0.639300 0.355300 O2-
0.183300 0.360700 0.644700 O2-
0.367400 0.027800 0.325500 O2-
0.632600 0.972200 0.674500 O2-
0.918700 0.166900 0.383300 O2-
0.081300 0.833100 0.616700 O2-
0.739000 0.741400 0.562700 O2-
0.261000 0.258600 0.437300 O2-
0.587500 0.185500 0.313600 O2-
0.412500 0.814500 0.686400 O2-
0.315400 0.137000 0.133100 O2-
0.684600 0.863000 0.866900 O2-
0.197000 0.531000 0.501000 O2-
0.803000 0.469000 0.499000 O2-
0.912600 0.971000 0.745100 O2-
0.087400 0.029000 0.254900 O2-
0.250200 0.729600 0.031800 O2-
0.749800 0.270400 0.968200 O2-
0.515900 0.312300 0.803600 O2-
0.484100 0.687700 0.196400 O2-
0.917300 0.414900 0.222000 O2-
0.082700 0.585100 0.778000 O2-
0.793300 0.591700 0.105200 O2-
0.206700 0.408300 0.894800 O2-
0.609700 0.264700 0.601300 O2-
0.390300 0.735300 0.398700 O2-
0.029600 0.263200 0.034800 O2-
0.970400 0.736800 0.965200 O2-
0.565200 0.535400 0.349400 O2-
0.434800 0.464600 0.650600 O2-
0.494000 0.682000 0.961600 O2-
0.506000 0.318000 0.038400 O2-
0.518700 0.073900 0.859600 O2-
0.481300 0.926100 0.140400 O2-
0.134800 0.865800 0.871900 O2-
0.865200 0.134200 0.128100 O2-
0.761800 0.986800 0.503800 O2-
0.238200 0.013200 0.496200 O2-
