Mn2 Si4 O10                             
   1.00000000000000     
    -2.8768931193179839   -4.0782169501285725    1.3092481410735703
    -2.8768931444564139    4.0782169618754498    1.3092481213812126
    -0.0008805268076891    0.0000000158395738   -6.5768473181699054
   Mn   Si   O 
     2     4    10
Direct
  0.3204787475857955  0.6795212449483614  0.2500001754132199
  0.6795212504281665  0.3204787469438060  0.7500001859020102
  0.9999997338223352  0.0000001351506072  0.4999999291963420
  0.0000001347112430  0.9999997320662644  0.9999999323047319
  0.3234826798844495  0.6765170122623019  0.7500001875527857
  0.6765170102651723  0.3234826807666877  0.2500001889956991
  0.0648376629507368  0.9351628373505463  0.2500001330803983
  0.9351628385320083  0.0648376647178779  0.7500001253957862
  0.7499047689152363  0.6463918579560968  0.4085348500581603
  0.3536080046409822  0.2500951323861074  0.0914651855335080
  0.2500951234479984  0.3536079920449211  0.5914651855960855
  0.6463918362843089  0.7499047508553431  0.9085348504667934
  0.1156410071965013  0.7006702916677057  0.8981798254245490
  0.2993299032594408  0.8843589949269770  0.6018197069018214
  0.8843589984683149  0.2993299268229919  0.1018197089639159
  0.7006702996073102  0.1156409991333973  0.3981798292142003
 
  0.00000000E+00  0.00000000E+00  0.00000000E+00
  0.00000000E+00  0.00000000E+00  0.00000000E+00
  0.00000000E+00  0.00000000E+00  0.00000000E+00
  0.00000000E+00  0.00000000E+00  0.00000000E+00
  0.00000000E+00  0.00000000E+00  0.00000000E+00
  0.00000000E+00  0.00000000E+00  0.00000000E+00
  0.00000000E+00  0.00000000E+00  0.00000000E+00
  0.00000000E+00  0.00000000E+00  0.00000000E+00
  0.00000000E+00  0.00000000E+00  0.00000000E+00
  0.00000000E+00  0.00000000E+00  0.00000000E+00
  0.00000000E+00  0.00000000E+00  0.00000000E+00
  0.00000000E+00  0.00000000E+00  0.00000000E+00
  0.00000000E+00  0.00000000E+00  0.00000000E+00
  0.00000000E+00  0.00000000E+00  0.00000000E+00
  0.00000000E+00  0.00000000E+00  0.00000000E+00
  0.00000000E+00  0.00000000E+00  0.00000000E+00
