Fe3 P1 O7                               
   1.00000000000000     
     4.0153672399550739    2.3183711649823824    2.2940006493736047
    -4.0154519710994263    2.3182244104782828    2.2940006487881432
     0.0000847294613795   -4.6365956581519310    2.2940007357413550
   Fe   P    O 
     3     1     7
Direct
  0.1505560792290837  0.5398870258379560  0.5398840068908939
  0.5398870048988087  0.5398839844525440  0.1505560686767424
  0.5398840058304657  0.1505560791452112  0.5398870270088238
  0.0000299947861890  0.0000299945953515  0.0000299980471823
  0.2289337209682643  0.2289337210626172  0.2289337173124011
  0.7674552258176490  0.3882057148874267  0.3882028768067443
  0.3882057092662095  0.3882028743079715  0.7674552208938152
  0.3882028797841528  0.7674552261796990  0.3882057123188360
  0.1453907395992644  0.8318236673640840  0.8318309756640758
  0.8318236622731732  0.8318309723556752  0.1453907307098845
  0.8318309775467370  0.1453907398114538  0.8318236656705906
 
  0.00000000E+00  0.00000000E+00  0.00000000E+00
  0.00000000E+00  0.00000000E+00  0.00000000E+00
  0.00000000E+00  0.00000000E+00  0.00000000E+00
  0.00000000E+00  0.00000000E+00  0.00000000E+00
  0.00000000E+00  0.00000000E+00  0.00000000E+00
  0.00000000E+00  0.00000000E+00  0.00000000E+00
  0.00000000E+00  0.00000000E+00  0.00000000E+00
  0.00000000E+00  0.00000000E+00  0.00000000E+00
  0.00000000E+00  0.00000000E+00  0.00000000E+00
  0.00000000E+00  0.00000000E+00  0.00000000E+00
  0.00000000E+00  0.00000000E+00  0.00000000E+00
