Mn8 Si2 O14                             
   1.00000000000000     
     8.0410652423138504   -0.0000924049043064    0.0000033585976461
    -4.0198948969573207    6.9641757593723526    0.0000013953843219
     0.0000019252584529    0.0000023415916268    4.8948512475617996
   Mn   Si   O 
     8     2    14
Direct
  0.4094763003440222  0.2963552918703190  0.5031041690680450
  0.8868625265237848  0.5904926700939406  0.5030900599922831
  0.7036470837277058  0.1131334830395039  0.5030338338710154
  0.5905202925780307  0.7036424274651147  0.0031036703243915
  0.1131380238163432  0.4095105406162989  0.0030899637265485
  0.2963556074870669  0.8868660138516695  0.0030332531177853
  0.0000040043566038  0.0000031202472879  0.5120943127957359
  0.9999962427641398 -0.0000031565180867  0.0121448002711733
  0.6666634298020634  0.3333271966391015  0.9374711590571528
  0.3333368544752529  0.6666727194096975  0.4374577473167661
  0.6666657703680215  0.3333330182337043  0.2695683471368658
  0.3333343812581753  0.6666667800839525  0.7695738253531151
  0.5049161178549020  0.1306521707969502  0.7973352698288322
  0.6257290625648714  0.4950968025761057  0.7973345059021267
  0.8693549739588855  0.3742599903796521  0.7973401587193124
  0.4950819469751648  0.8693473456636710  0.2973363701038339
  0.3742728099908714  0.5049051604606024  0.2973355551317330
  0.1306457190698801  0.6257382949692022  0.2973412644507357
  0.2038220405541859  0.0514377278963851  0.2625349354049041
  0.8476324246956310  0.7961814166855467  0.2625395716251810
  0.9485507636752285  0.1523833542988618  0.2625332902457739
  0.7961622316099598  0.9485375592220538  0.7625333995981717
  0.1523582881766040  0.2038350213352577  0.7625371325527808
  0.0514731033726194  0.8476250506831863  0.7625334044057182
 
  0.00000000E+00  0.00000000E+00  0.00000000E+00
  0.00000000E+00  0.00000000E+00  0.00000000E+00
  0.00000000E+00  0.00000000E+00  0.00000000E+00
  0.00000000E+00  0.00000000E+00  0.00000000E+00
  0.00000000E+00  0.00000000E+00  0.00000000E+00
  0.00000000E+00  0.00000000E+00  0.00000000E+00
  0.00000000E+00  0.00000000E+00  0.00000000E+00
  0.00000000E+00  0.00000000E+00  0.00000000E+00
  0.00000000E+00  0.00000000E+00  0.00000000E+00
  0.00000000E+00  0.00000000E+00  0.00000000E+00
  0.00000000E+00  0.00000000E+00  0.00000000E+00
  0.00000000E+00  0.00000000E+00  0.00000000E+00
  0.00000000E+00  0.00000000E+00  0.00000000E+00
  0.00000000E+00  0.00000000E+00  0.00000000E+00
  0.00000000E+00  0.00000000E+00  0.00000000E+00
  0.00000000E+00  0.00000000E+00  0.00000000E+00
  0.00000000E+00  0.00000000E+00  0.00000000E+00
  0.00000000E+00  0.00000000E+00  0.00000000E+00
  0.00000000E+00  0.00000000E+00  0.00000000E+00
  0.00000000E+00  0.00000000E+00  0.00000000E+00
  0.00000000E+00  0.00000000E+00  0.00000000E+00
  0.00000000E+00  0.00000000E+00  0.00000000E+00
  0.00000000E+00  0.00000000E+00  0.00000000E+00
  0.00000000E+00  0.00000000E+00  0.00000000E+00
