Ca4 V4 P6 O24
1.0
2.575295 7.277755 4.336218
0.023810 0.030248 8.826601
7.701848 0.030227 4.322994
Ca V P O
4 4 6 24
direct
0.242612 0.884265 0.592315 Ca
0.966440 0.004502 0.022172 Ca
0.411394 0.744034 0.109193 Ca
0.154821 0.404630 0.740247 Ca
0.645881 0.631444 0.631167 V
0.141118 0.151024 0.149797 V
0.841580 0.857410 0.858249 V
0.355737 0.347477 0.352189 V
0.246513 0.557088 0.951980 P
0.040431 0.748820 0.448216 P
0.962489 0.255280 0.556295 P
0.446900 0.031063 0.740613 P
0.536629 0.949115 0.249547 P
0.745519 0.456298 0.031508 P
0.562053 0.771132 0.413577 O
0.258151 0.061445 0.905263 O
0.398866 0.578246 0.761787 O
0.923668 0.288481 0.028514 O
0.780644 0.409998 0.562849 O
0.069822 0.908976 0.265901 O
0.943280 0.086815 0.737080 O
0.586052 0.413469 0.208370 O
0.712555 0.951646 0.086362 O
0.229209 0.588487 0.416652 O
0.088378 0.746181 0.923616 O
0.431011 0.216649 0.586892 O
0.188240 0.402518 0.989262 O
0.878093 0.706517 0.487684 O
0.042615 0.178079 0.402484 O
0.458650 0.876360 0.696783 O
0.383316 0.953522 0.209917 O
0.700236 0.507885 0.862715 O
0.297165 0.531257 0.106758 O
0.028897 0.773328 0.615973 O
0.111012 0.308401 0.546794 O
0.597045 0.965238 0.813936 O
0.458332 0.111057 0.315663 O
0.764760 0.622071 0.023678 O
