Ca4 Mn4 P6 O24                          
   1.00000000000000     
     2.6519780000000002    7.7530659999999996    4.4693090000000000
     0.0101570000000000    0.2633030000000000    8.6362140000000007
     7.5731229999999998    0.2801960000000000    4.2020949999999999
   Ca   Mn   P    O 
     4     4     6    24
Direct
  0.5069747337963774  0.4984658502523575  0.5055042769150661
  0.9116167589897567  0.9929639342432397  0.0680403736604007
  0.3707864427969897  0.7389987364768597  0.0915194217969483
  0.1182559397467002  0.3870199433616954  0.7680750138704223
  0.6407550662365524  0.6614313230222546  0.6393542081406898
  0.1678858840196550  0.1378377414644897  0.1744334665261771
  0.8551292403353423  0.8661496164711837  0.8291130833586670
  0.3175537035877061  0.3126084129984288  0.3698513077402959
  0.2384896559545419  0.5556695640151658  0.9563116133410248
  0.0390758003409012  0.7652492372250237  0.4503117009619830
  0.9366815385051157  0.2554107815311421  0.5818817891695540
  0.4599367713005583  0.0519627178901802  0.7360037908093254
  0.5497007887850711  0.9210802044146983  0.2442693109616643
  0.7474549692738883  0.4903721102097252  0.0128572954553911
  0.5830734221106726  0.7525332048149775  0.4179276791818468
  0.2833409022331513  0.0694935940415522  0.9084807731026584
  0.3960173350666558  0.5689738000847333  0.7717620901857545
  0.8792856801041312  0.2904866735253395  1.0239188076980807
  0.7619739244264270  0.4259230885888833  0.5893617203567878
  0.0754352889432930  0.9112976568312694  0.2508234654022081
  0.8920285160822108  0.0939770974497179  0.7653347479083656
  0.6112506907683792  0.5179507638098620  0.2007523375733478
  0.7253421140455445  0.8815999124258018  0.0799142962818543
  0.2157561996949430  0.5920674047638352  0.4421626847214313
  0.0858354460479538  0.7440138273905089  0.9472950459540780
  0.4225632677955037  0.2440276977619750  0.5807283353120638
  0.1870253628471139  0.3961062036658852 -0.0126307299202082
  0.8829574432210149  0.7190187645292819  0.4979983414378171
  1.0004453603173447  0.2122679565106631  0.4048952329092090
  0.4805868979376777  0.8919460160474264  0.6871253049525060
  0.3987666038605647  0.9208688599777995  0.2199731861589909
  0.6370936764962962  0.5556264532669291  0.8938675169451078
  0.2893968181877671  0.5092985636321977  0.1222209160225951
  0.0163249143884947  0.8373787742075093  0.5942269488716484
  0.0784268298608474  0.2930303887827470  0.5869815013772377
  0.6140620870395513  0.0097921226792631  0.7801752537558408
  0.5183258627287167  0.1032784528687153  0.2611494108536779
  0.8643732721780204  0.6132624882045942  0.9083561032943644
 
             NaN             NaN             NaN
             NaN             NaN             NaN
             NaN             NaN             NaN
             NaN             NaN             NaN
             NaN             NaN             NaN
             NaN             NaN             NaN
             NaN             NaN             NaN
             NaN             NaN             NaN
             NaN             NaN             NaN
             NaN             NaN             NaN
             NaN             NaN             NaN
             NaN             NaN             NaN
             NaN             NaN             NaN
             NaN             NaN             NaN
             NaN             NaN             NaN
             NaN             NaN             NaN
             NaN             NaN             NaN
             NaN             NaN             NaN
             NaN             NaN             NaN
             NaN             NaN             NaN
             NaN             NaN             NaN
             NaN             NaN             NaN
             NaN             NaN             NaN
             NaN             NaN             NaN
             NaN             NaN             NaN
             NaN             NaN             NaN
             NaN             NaN             NaN
             NaN             NaN             NaN
             NaN             NaN             NaN
             NaN             NaN             NaN
             NaN             NaN             NaN
             NaN             NaN             NaN
             NaN             NaN             NaN
             NaN             NaN             NaN
             NaN             NaN             NaN
             NaN             NaN             NaN
             NaN             NaN             NaN
             NaN             NaN             NaN
