Ca4 Mn4 P6 O24
1.0
2.651978 7.753066 4.469309
0.010157 0.263303 8.636214
7.573123 0.280196 4.202095
Ca Mn P O
4 4 6 24
direct
0.509047 0.526604 0.539504 Ca
0.900252 0.982429 0.085709 Ca
0.370065 0.737196 0.109621 Ca
0.133652 0.386641 0.760460 Ca
0.637313 0.661751 0.637434 Mn
0.159415 0.139544 0.186882 Mn
0.854505 0.857674 0.830187 Mn
0.347545 0.311518 0.354024 Mn
0.246861 0.546641 0.953547 P
0.028710 0.771098 0.441539 P
0.944995 0.244763 0.592636 P
0.463789 0.051756 0.726555 P
0.554168 0.905750 0.249704 P
0.748181 0.485954 0.005413 P
0.585304 0.731473 0.420116 O
0.296196 0.063435 0.905221 O
0.396789 0.553402 0.762369 O
0.878341 0.290125 0.996941 O
0.777660 0.417173 0.617865 O
0.074753 0.922373 0.246619 O
0.902079 0.077816 0.771443 O
0.617806 0.494265 0.201297 O
0.724040 0.865144 0.080709 O
0.194489 0.591766 0.433815 O
0.095596 0.737845 0.945643 O
0.425624 0.245042 0.574568 O
0.182381 0.390017 0.001133 O
0.864886 0.751465 0.468916 O
0.978287 0.213211 0.419649 O
0.480643 0.900828 0.667279 O
0.392397 0.926065 0.228697 O
0.629365 0.580110 0.887237 O
0.309612 0.501417 0.109758 O
0.009947 0.830749 0.593341 O
0.103358 0.264487 0.581857 O
0.622973 0.014390 0.758117 O
0.539734 0.081437 0.265564 O
0.868406 0.604313 0.909746 O
