Ca4 Co2 Si4 O14                         
   1.00000000000000     
     7.8334767079808234   -0.0000000431038809    0.0000001382655633
    -0.0000000299151023    7.8334710164899919   -0.0004481560406704
     0.0000000725830075    0.0010182316748455    4.9839720593235741
   Ca   Co   Si   O 
     4     2     4    14
Direct
  0.3322243753751053  0.1678231804047101  0.5017891286061982
  0.1677935441147795  0.6677405659065556  0.4981892465830740
  0.6677935461066085  0.8322594351002763  0.5018107493134281
  0.8322243572719827  0.3321768313651177  0.4982108714305014
  0.4999839284952259  0.5002465524854216  0.0000104178453810
  0.9999839779000510  0.9997534413531923  0.9999895753127888
  0.1405677331447777  0.3593864983712933  0.9329816629429075
  0.3594591032480778  0.8595105668050138  0.0669459630451712
  0.8594590812444025  0.6404894451657341  0.9330540553333506
  0.6405677238373997  0.1406134924926263  0.0670183053081672
  0.5000185162596651  0.0000023971123611  0.1821580994606578
  0.0000185222225468  0.4999976014001106  0.8178418985455025
  0.1417684090895008  0.3582527637597579  0.2535887898371740
  0.3582446421724512  0.8582221972501642  0.7463828017497178
  0.8582446353799043  0.6417777996409200  0.2536172238351710
  0.6417684096889218  0.1417472397039958  0.7464111887833766
  0.3135257032072687  0.4183099670184376  0.7786705513518513
  0.1865167942002728  0.9183893693066807  0.2212699841341603
  0.6865167960537377  0.5816106122365525  0.7787300425139634
  0.8135257251913259  0.0816900486787944  0.2213294141905493
  0.5816057807757673  0.3135430850097833  0.2212615318273450
  0.9182914373827771  0.8134636429699924  0.7786758333881139
  0.4182914642521069  0.6865363450525450  0.2213242211004101
  0.0816057933853500  0.1864569214099561  0.7787384435610392
 
  0.00000000E+00  0.00000000E+00  0.00000000E+00
  0.00000000E+00  0.00000000E+00  0.00000000E+00
  0.00000000E+00  0.00000000E+00  0.00000000E+00
  0.00000000E+00  0.00000000E+00  0.00000000E+00
  0.00000000E+00  0.00000000E+00  0.00000000E+00
  0.00000000E+00  0.00000000E+00  0.00000000E+00
  0.00000000E+00  0.00000000E+00  0.00000000E+00
  0.00000000E+00  0.00000000E+00  0.00000000E+00
  0.00000000E+00  0.00000000E+00  0.00000000E+00
  0.00000000E+00  0.00000000E+00  0.00000000E+00
  0.00000000E+00  0.00000000E+00  0.00000000E+00
  0.00000000E+00  0.00000000E+00  0.00000000E+00
  0.00000000E+00  0.00000000E+00  0.00000000E+00
  0.00000000E+00  0.00000000E+00  0.00000000E+00
  0.00000000E+00  0.00000000E+00  0.00000000E+00
  0.00000000E+00  0.00000000E+00  0.00000000E+00
  0.00000000E+00  0.00000000E+00  0.00000000E+00
  0.00000000E+00  0.00000000E+00  0.00000000E+00
  0.00000000E+00  0.00000000E+00  0.00000000E+00
  0.00000000E+00  0.00000000E+00  0.00000000E+00
  0.00000000E+00  0.00000000E+00  0.00000000E+00
  0.00000000E+00  0.00000000E+00  0.00000000E+00
  0.00000000E+00  0.00000000E+00  0.00000000E+00
  0.00000000E+00  0.00000000E+00  0.00000000E+00
