Cr6 P6 O24
1.0
-0.000000 -0.000000 6.279700
5.189850 6.422600 3.139850
-5.189850 6.422600 3.139850
Cr P O
6 6 24
direct
0.000000 0.500000 0.500000 Cr3+
0.500000 0.000000 0.000000 Cr3+
0.885200 0.614800 0.114800 Cr3+
0.114800 0.885200 0.385200 Cr3+
0.885200 0.114800 0.614800 Cr3+
0.114800 0.385200 0.885200 Cr3+
0.166200 0.250000 0.250000 P5+
0.833800 0.750000 0.750000 P5+
0.676000 0.824000 0.324000 P5+
0.324000 0.676000 0.176000 P5+
0.676000 0.324000 0.824000 P5+
0.324000 0.176000 0.676000 P5+
0.023500 0.372000 0.128000 O2-
0.976500 0.872000 0.628000 O2-
0.976500 0.628000 0.872000 O2-
0.023500 0.128000 0.372000 O2-
0.796200 0.629300 0.350700 O2-
0.203800 0.649300 0.370700 O2-
0.723800 0.129300 0.850700 O2-
0.276200 0.149300 0.870700 O2-
0.203800 0.370700 0.649300 O2-
0.796200 0.350700 0.629300 O2-
0.276200 0.870700 0.149300 O2-
0.723800 0.850700 0.129300 O2-
0.807900 0.913200 0.360200 O2-
0.192100 0.639800 0.086800 O2-
0.418700 0.413200 0.860200 O2-
0.581300 0.139800 0.586800 O2-
0.192100 0.086800 0.639800 O2-
0.807900 0.360200 0.913200 O2-
0.581300 0.586800 0.139800 O2-
0.418700 0.860200 0.413200 O2-
0.195600 0.348800 0.348800 O2-
0.804400 0.651200 0.651200 O2-
0.606800 0.848800 0.848800 O2-
0.393200 0.151200 0.151200 O2-
