Ca2 Co4 S6 O24
1.0
7.603433 0.050221 4.482910
2.610645 7.050452 4.494116
0.157017 0.015556 8.806189
Ca Co S O
2 4 6 24
direct
0.468430 0.542892 0.509058 Ca
0.992326 1.000402 1.000497 Ca
0.646214 0.646055 0.646670 Co
0.143995 0.147749 0.144345 Co
0.848257 0.849130 0.849192 Co
0.352753 0.349052 0.349627 Co
0.955348 0.247833 0.541627 S
0.448711 0.042775 0.748616 S
0.545099 0.952940 0.245482 S
0.746738 0.451299 0.044691 S
0.248193 0.543523 0.951811 S
0.041338 0.747990 0.452421 S
0.408975 0.563356 0.769251 O
0.902484 0.265963 0.070863 O
0.779284 0.411724 0.558658 O
0.067572 0.904477 0.268089 O
0.564251 0.771140 0.405895 O
0.263869 0.067602 0.905942 O
0.726481 0.930011 0.085239 O
0.217397 0.583468 0.437895 O
0.089723 0.728587 0.929591 O
0.435387 0.223436 0.587741 O
0.930997 0.089439 0.725669 O
0.583882 0.437880 0.223867 O
0.985882 0.195711 0.393495 O
0.478153 0.893132 0.697360 O
0.392133 0.990211 0.198098 O
0.700434 0.482336 0.893238 O
0.195636 0.394903 0.982873 O
0.886912 0.705936 0.486259 O
0.110332 0.289301 0.508005 O
0.596976 0.001306 0.805081 O
0.517234 0.103278 0.293446 O
0.802852 0.598989 0.009398 O
0.296796 0.508375 0.103390 O
0.010116 0.800909 0.600859 O
