Co4 P4
1.0
5.077000 0.000000 0.000000
0.000000 3.281000 0.000000
0.000000 0.000000 5.587000
Co P
4 4
direct
0.500700 0.250000 0.302400 Co2+
0.000700 0.250000 0.197600 Co2+
0.499300 0.750000 0.697600 Co2+
0.999300 0.750000 0.802400 Co2+
0.691300 0.250000 0.918400 P2-
0.191300 0.250000 0.581600 P2-
0.308700 0.750000 0.081600 P2-
0.808700 0.750000 0.418400 P2-
