Ca2 Co6 P8 O28                          
   1.00000000000000     
     6.8227467915055495    0.0003927725151647   -2.6819244222460710
     0.0006055744687973    7.6101454422978936    0.0001538270096345
     0.0446695080020448   -0.0005467462176846    9.3907300230708532
   Ca   Co   P    O 
     2     6     8    28
Direct
  0.4999912856994168  0.4999874498827762  0.4999832054959407
  0.5000031716475850  0.0000012820734031  0.9999951458658516
  0.1858713545736216  0.8723971860734376  0.5265175706992995
  0.8141553135674389  0.3723887214019352  0.9734943308743225
  0.8140977475498922  0.1275919811591789  0.4734673956522915
  0.1858423174364933  0.6275939677060215  0.0264527045916425
  0.0000085022841672  0.4999904979494167  0.4999821181618019
  0.0000047388213237  0.0000036426993753  0.9999870377481194
  0.8812794883153747  0.7931496407636240  0.6925776755758800
  0.1186977589162631  0.2931637995828645  0.8073722290369074
  0.1187020683065122  0.2068335026517991  0.3074233211306672
  0.8813083307250321  0.7068424376821890  0.1926359657712741
  0.5964971677145844  0.0637867900101011  0.7022827389326491
  0.4035347005531600  0.5637680272679720  0.7977185797622913
  0.4035004536808526  0.9362207939132566  0.2977279576673058
  0.5964771019256719  0.4362313508573487  0.2022849486980734
  0.3902681844805300  0.0226497077770588  0.6905852302987250
  0.6097858142989283  0.5225953822851542  0.8094802821928551
  0.6097396077567373  0.9773667380930483  0.3094385430373434
  0.3902263756071426  0.4774177044856572  0.1905432163233891
  0.0106978750099564  0.2857284016868682  0.6353837205452422
  0.9892179317125934  0.7856784274720181  0.8645709283630547
  0.9893227202268852  0.7142797352999278  0.3646347182463835
  0.0107890861019762  0.2142928315130893  0.1354384094521842
  0.9765097258349700  0.9178174143821499  0.6146963096743545
  0.0234579886108617  0.4178318845823517  0.8852935479466664
  0.0234750592426564  0.0821784939750287  0.3853224754354095
  0.9765403704412531  0.5821847922085772  0.1147122144586574
  0.6754990326468275  0.8762644304165090  0.6742215632307066
  0.3244484302506926  0.3762830344767835  0.8256951065251994
  0.3244942967960400  0.1237458574054467  0.3257818590637853
  0.6755588306726787  0.6237262348835929  0.1743217429272981
  0.6223159642490066  0.1908860706106840  0.5873124199857852
  0.3776881976667387  0.6908658180653543  0.9126962800596512
  0.3776749478749302  0.8091220506917923  0.4126883391547314
  0.6223314621144078  0.3091408268815115  0.0872931467124857
  0.2810314535678531  0.6154601387994789  0.6329373827364400
  0.7190787900373069  0.1154147473232737  0.8670766481921220
  0.7189778473214945  0.3845248573231542  0.3670604546808529
  0.2809377958143438  0.8845950109722917  0.1329274465684759
  0.8313033078464872  0.6200681571726738  0.6082826322925963
  0.1687090367045392  0.1201019310560939  0.8916391901201161
  0.1686656017888424  0.3799239457829456  0.3917030136915278
  0.8312827636059308  0.8799043027027921  0.1083602524196582
 
  0.00000000E+00  0.00000000E+00  0.00000000E+00
  0.00000000E+00  0.00000000E+00  0.00000000E+00
  0.00000000E+00  0.00000000E+00  0.00000000E+00
  0.00000000E+00  0.00000000E+00  0.00000000E+00
  0.00000000E+00  0.00000000E+00  0.00000000E+00
  0.00000000E+00  0.00000000E+00  0.00000000E+00
  0.00000000E+00  0.00000000E+00  0.00000000E+00
  0.00000000E+00  0.00000000E+00  0.00000000E+00
  0.00000000E+00  0.00000000E+00  0.00000000E+00
  0.00000000E+00  0.00000000E+00  0.00000000E+00
  0.00000000E+00  0.00000000E+00  0.00000000E+00
  0.00000000E+00  0.00000000E+00  0.00000000E+00
  0.00000000E+00  0.00000000E+00  0.00000000E+00
  0.00000000E+00  0.00000000E+00  0.00000000E+00
  0.00000000E+00  0.00000000E+00  0.00000000E+00
  0.00000000E+00  0.00000000E+00  0.00000000E+00
  0.00000000E+00  0.00000000E+00  0.00000000E+00
  0.00000000E+00  0.00000000E+00  0.00000000E+00
  0.00000000E+00  0.00000000E+00  0.00000000E+00
  0.00000000E+00  0.00000000E+00  0.00000000E+00
  0.00000000E+00  0.00000000E+00  0.00000000E+00
  0.00000000E+00  0.00000000E+00  0.00000000E+00
  0.00000000E+00  0.00000000E+00  0.00000000E+00
  0.00000000E+00  0.00000000E+00  0.00000000E+00
  0.00000000E+00  0.00000000E+00  0.00000000E+00
  0.00000000E+00  0.00000000E+00  0.00000000E+00
  0.00000000E+00  0.00000000E+00  0.00000000E+00
  0.00000000E+00  0.00000000E+00  0.00000000E+00
  0.00000000E+00  0.00000000E+00  0.00000000E+00
  0.00000000E+00  0.00000000E+00  0.00000000E+00
  0.00000000E+00  0.00000000E+00  0.00000000E+00
  0.00000000E+00  0.00000000E+00  0.00000000E+00
  0.00000000E+00  0.00000000E+00  0.00000000E+00
  0.00000000E+00  0.00000000E+00  0.00000000E+00
  0.00000000E+00  0.00000000E+00  0.00000000E+00
  0.00000000E+00  0.00000000E+00  0.00000000E+00
  0.00000000E+00  0.00000000E+00  0.00000000E+00
  0.00000000E+00  0.00000000E+00  0.00000000E+00
  0.00000000E+00  0.00000000E+00  0.00000000E+00
  0.00000000E+00  0.00000000E+00  0.00000000E+00
  0.00000000E+00  0.00000000E+00  0.00000000E+00
  0.00000000E+00  0.00000000E+00  0.00000000E+00
  0.00000000E+00  0.00000000E+00  0.00000000E+00
  0.00000000E+00  0.00000000E+00  0.00000000E+00
