Ca2 Co6 P8 O28
1.0
6.868574 0.000000 -2.737504
0.000000 7.626600 0.000000
0.000000 0.000000 9.444000
Ca Co P O
2 6 8 28
direct
0.500000 0.500000 0.500000 Ca2+
0.500000 0.000000 0.000000 Ca2+
0.187300 0.874000 0.527400 Co2+
0.812700 0.374000 0.972600 Co2+
0.812700 0.126000 0.472600 Co2+
0.187300 0.626000 0.027400 Co2+
0.000000 0.500000 0.500000 Co2+
0.000000 0.000000 0.000000 Co2+
0.878500 0.795200 0.691800 P5+
0.121500 0.295200 0.808200 P5+
0.121500 0.204800 0.308200 P5+
0.878500 0.704800 0.191800 P5+
0.597400 0.066100 0.703800 P5+
0.402600 0.566100 0.796200 P5+
0.402600 0.933900 0.296200 P5+
0.597400 0.433900 0.203800 P5+
0.393600 0.024500 0.693700 O2-
0.606400 0.524500 0.806300 O2-
0.606400 0.975500 0.306300 O2-
0.393600 0.475500 0.193700 O2-
0.010500 0.287300 0.637100 O2-
0.989500 0.787300 0.862900 O2-
0.989500 0.712700 0.362900 O2-
0.010500 0.212700 0.137100 O2-
0.972500 0.921100 0.613800 O2-
0.027500 0.421100 0.886200 O2-
0.027500 0.078900 0.386200 O2-
0.972500 0.578900 0.113800 O2-
0.673900 0.878900 0.674600 O2-
0.326100 0.378900 0.825400 O2-
0.326100 0.121100 0.325400 O2-
0.673900 0.621100 0.174600 O2-
0.620100 0.193500 0.589200 O2-
0.379900 0.693500 0.910800 O2-
0.379900 0.806500 0.410800 O2-
0.620100 0.306500 0.089200 O2-
0.276100 0.618000 0.631800 O2-
0.723900 0.118000 0.868200 O2-
0.723900 0.382000 0.368200 O2-
0.276100 0.882000 0.131800 O2-
0.828600 0.622000 0.607200 O2-
0.171400 0.122000 0.892800 O2-
0.171400 0.378000 0.392800 O2-
0.828600 0.878000 0.107200 O2-
