Mn6 P3                                  
   1.00000000000000     
     5.6012186939512061   -0.0002659655480063   -0.0000000009582171
    -2.8008396484961824    4.8508495215518463    0.0000000031000180
     0.0000000003419219    0.0000000024407734    3.5299359476129624
   Mn   P 
     6     3
Direct
  0.7469810122815872  0.7469774212778120  0.9999999553237515
  0.2529837689517080  0.9999541072478166  0.9999999632040897
  0.9999602150052525  0.2530141898711946  0.9999999632785403
  0.4122484941858886  0.4122466917139533  0.5000000063707333
  0.5878188047654760  0.9999928366610433  0.5000000158268705
  0.9999935351174685  0.5878102886490950  0.5000000165460179
  0.6666529893996014  0.3333375595591193  0.0000000895309640
  0.3333280318792831  0.6666683342775315  0.0000000897186609
  0.0000331484137277  0.9999985707424344  0.4999999002003719
 
  0.00000000E+00  0.00000000E+00  0.00000000E+00
  0.00000000E+00  0.00000000E+00  0.00000000E+00
  0.00000000E+00  0.00000000E+00  0.00000000E+00
  0.00000000E+00  0.00000000E+00  0.00000000E+00
  0.00000000E+00  0.00000000E+00  0.00000000E+00
  0.00000000E+00  0.00000000E+00  0.00000000E+00
  0.00000000E+00  0.00000000E+00  0.00000000E+00
  0.00000000E+00  0.00000000E+00  0.00000000E+00
  0.00000000E+00  0.00000000E+00  0.00000000E+00
