Mn6 P3
1.0
6.081000 0.000000 0.000000
-3.040500 5.266300 0.000000
0.000000 0.000000 3.460000
Mn P
6 3
direct
0.745400 0.745400 0.000000 Mn0+
0.254600 0.000000 0.000000 Mn0+
0.000000 0.254600 0.000000 Mn0+
0.405700 0.405700 0.500000 Mn0+
0.594300 0.000000 0.500000 Mn0+
0.000000 0.594300 0.500000 Mn0+
0.666667 0.333333 0.000000 P0+
0.333333 0.666667 0.000000 P0+
0.000000 0.000000 0.500000 P0+
