Ca1 V4 P6 O24
1.0
2.580368 6.979528 4.489029
0.245209 0.160565 8.714041
7.439543 0.138796 4.518184
Ca V P O
1 4 6 24
direct
0.409705 0.646447 0.527471 Ca
0.645888 0.643020 0.643496 V
0.136106 0.141834 0.144049 V
0.848682 0.850340 0.858274 V
0.353260 0.351090 0.353845 V
0.250071 0.526474 0.961051 P
0.034893 0.745322 0.467924 P
0.959473 0.250774 0.526326 P
0.460287 0.031418 0.747913 P
0.532881 0.965954 0.244576 P
0.746541 0.463840 0.038919 P
0.592210 0.769329 0.404912 O
0.304913 0.032860 0.942746 O
0.405140 0.580065 0.762761 O
0.940267 0.299567 0.026088 O
0.773693 0.411333 0.584766 O
0.041639 0.941229 0.303640 O
0.958556 0.055741 0.687568 O
0.588552 0.406207 0.230284 O
0.689555 0.970106 0.048217 O
0.222343 0.585970 0.408217 O
0.056195 0.694853 0.954492 O
0.416464 0.230304 0.588736 O
0.242455 0.340741 0.992447 O
0.864164 0.718290 0.496089 O
0.970335 0.262370 0.340067 O
0.476206 0.877950 0.700070 O
0.340618 -0.017094 0.262543 O
0.693697 0.512568 0.870006 O
0.294633 0.501625 0.120407 O
0.023549 0.736481 0.652074 O
0.132856 0.278773 0.497282 O
0.657697 0.985929 0.749105 O
0.504771 0.126714 0.290421 O
0.746757 0.642417 0.028739 O
