Ca5 Co4 P6 O24                          
   1.00000000000000     
     2.5689429122738225    7.3428922904126992    4.3650288147859042
    -0.0058515681997872    0.0122575695452273    8.7534521019968743
     7.6713281245874603    0.0263279853557519    4.2233367033502995
   Ca   Co   P    O 
     5     4     6    24
Direct
  0.5435083024980656  0.4639453753746294  0.4936675724995471
  0.9530438098319340  0.0015177361282181  0.0320171253367307
  0.3932381076657226  0.7461958836630670  0.0881538984271433
  0.1030260844898570  0.4078240547855697  0.7510284823828065
  0.2475716050914371  0.8998103695488021  0.5957836187229806
  0.6537640559999937  0.6444931317563610  0.6341813173143145
  0.1447583057700465  0.1515030113602703  0.1497085815589714
  0.8420279909320092  0.8630581323754056  0.8508760302434643
  0.3517862278820931  0.3458004735638425  0.3446319590248788
  0.2479827411382647  0.5528179381186651  0.9434257226017175
  0.0539585861161200  0.7508178697305133  0.4523040724694032
  0.9636207185747928  0.2516093454180521  0.5550119499111321
  0.4414535256557990  0.0434402176323785  0.7452875657208911
  0.5324688053873485  0.9409759209151456  0.2445986608648416
  0.7481920335334259  0.4560624812674367  0.0392392149813835
  0.5588295942640001  0.7562047157156924  0.4056543024773117
  0.2503146497976849  0.0705469457825445  0.9042673463855962
  0.3995517017575524  0.5743181294569991  0.7501561536830843
  0.9114354953121611  0.2737266181916160  0.0559132972422910
  0.7856554116758752  0.4102434088169588  0.5511037505346466
  0.0724685288853755  0.9021302561248886  0.2622914045720102
  0.9368167950430019  0.0904894406353110  0.7398580374614097
  0.5841693326389651  0.4413571938026083  0.2211971895503788
  0.7105121806140833  0.9442411378004713  0.0857009881114675
  0.2449009258584114  0.5918314681793548  0.4254780033164711
  0.0963760442706685  0.7458711663482208  0.9213139472200685
  0.4235843942609767  0.2335882378245089  0.5942187838279543
  0.1886617423446706  0.3993329345698656  0.9770913381278160
  0.9019145715869114  0.6828337012949564  0.5141340017216384
  0.0428988469464090  0.1714898144451365  0.4008383307243593
  0.4587820300731734  0.8874255251545948  0.6966446073563867
  0.3855082994326731  0.9485530161799310  0.1945766222626367
  0.6962714007713969  0.4917293024609269  0.8813806507988580
  0.3070967515138585  0.5198729725677922  0.0966000200203717
  0.0364852295790052  0.7990617100277275  0.6087002117313336
  0.1101559965673921  0.3019828416995198  0.5479974185306683
  0.5928351431121862  0.9805387419179931  0.8145575836918922
  0.4539342313949976  0.0955364428980218  0.3239391425008560
  0.8013398017317126  0.6140223364660429  0.0014710960903331
 
  0.00000000E+00  0.00000000E+00  0.00000000E+00
  0.00000000E+00  0.00000000E+00  0.00000000E+00
  0.00000000E+00  0.00000000E+00  0.00000000E+00
  0.00000000E+00  0.00000000E+00  0.00000000E+00
  0.00000000E+00  0.00000000E+00  0.00000000E+00
  0.00000000E+00  0.00000000E+00  0.00000000E+00
  0.00000000E+00  0.00000000E+00  0.00000000E+00
  0.00000000E+00  0.00000000E+00  0.00000000E+00
  0.00000000E+00  0.00000000E+00  0.00000000E+00
  0.00000000E+00  0.00000000E+00  0.00000000E+00
  0.00000000E+00  0.00000000E+00  0.00000000E+00
  0.00000000E+00  0.00000000E+00  0.00000000E+00
  0.00000000E+00  0.00000000E+00  0.00000000E+00
  0.00000000E+00  0.00000000E+00  0.00000000E+00
  0.00000000E+00  0.00000000E+00  0.00000000E+00
  0.00000000E+00  0.00000000E+00  0.00000000E+00
  0.00000000E+00  0.00000000E+00  0.00000000E+00
  0.00000000E+00  0.00000000E+00  0.00000000E+00
  0.00000000E+00  0.00000000E+00  0.00000000E+00
  0.00000000E+00  0.00000000E+00  0.00000000E+00
  0.00000000E+00  0.00000000E+00  0.00000000E+00
  0.00000000E+00  0.00000000E+00  0.00000000E+00
  0.00000000E+00  0.00000000E+00  0.00000000E+00
  0.00000000E+00  0.00000000E+00  0.00000000E+00
  0.00000000E+00  0.00000000E+00  0.00000000E+00
  0.00000000E+00  0.00000000E+00  0.00000000E+00
  0.00000000E+00  0.00000000E+00  0.00000000E+00
  0.00000000E+00  0.00000000E+00  0.00000000E+00
  0.00000000E+00  0.00000000E+00  0.00000000E+00
  0.00000000E+00  0.00000000E+00  0.00000000E+00
  0.00000000E+00  0.00000000E+00  0.00000000E+00
  0.00000000E+00  0.00000000E+00  0.00000000E+00
  0.00000000E+00  0.00000000E+00  0.00000000E+00
  0.00000000E+00  0.00000000E+00  0.00000000E+00
  0.00000000E+00  0.00000000E+00  0.00000000E+00
  0.00000000E+00  0.00000000E+00  0.00000000E+00
  0.00000000E+00  0.00000000E+00  0.00000000E+00
  0.00000000E+00  0.00000000E+00  0.00000000E+00
  0.00000000E+00  0.00000000E+00  0.00000000E+00
