Ca5 Ni4 P6 O24                          
   1.00000000000000     
     2.5165607048968028    7.2884475482347186    4.3283696789378432
    -0.0532117111749641    0.0349543718589260    8.7044588004404293
     7.5938912516982251    0.0395602654543685    4.2416257163830871
   Ca   Ni   P    O 
     5     4     6    24
Direct
  0.5438815933778479  0.4643488922389908  0.4910455406568669
  0.9517884108749223  0.0050668251449687  0.0317940525383718
  0.3929712588625842  0.7471410495685936  0.0885353421924839
  0.1025656193841560  0.4072073745717993  0.7491246907450089
  0.2476969009348045  0.8990128670665167  0.5967920488350779
  0.6529002096808928  0.6411979817079922  0.6350077919602222
  0.1461666030819443  0.1489026283218684  0.1478982653912669
  0.8427496250548123  0.8585571982059204  0.8564747355920482
  0.3496550591975407  0.3467622766366270  0.3477757442993678
  0.2481422614004397  0.5505516577858069  0.9453732528705021
  0.0489817968863470  0.7532513539519087  0.4520602432275813
  0.9629322549004580  0.2510418713445945  0.5528208677680531
  0.4470454372572870  0.0438425207534120  0.7427891250255981
  0.5330203457478462  0.9432551614888931  0.2447504814384369
  0.7477556728641511  0.4550021264752755  0.0411193402272123
  0.5587837895373554  0.7568835886662590  0.4069844022107615
  0.2542733398296003  0.0720412056241806  0.9038987061906585
  0.4026037383149738  0.5735466273898426  0.7514645626095163
  0.9152339231370175  0.2752795967962239  0.0605390058621776
  0.7842548142847361  0.4120032982539751  0.5501722869317253
  0.0713126889292792  0.9075378390784461  0.2621773016609911
  0.9365716309186871  0.0888937215214420  0.7391115833027306
  0.5804453799173807  0.4352818774538333  0.2208922668166840
  0.7120680180134441  0.9450387663749966  0.0842510046600633
  0.2416062121666172  0.5921991365954625  0.4237195818620090
  0.0936239736496504  0.7443948494793396  0.9226286295487064
  0.4247653362386127  0.2338507173401739  0.5888033272076957
  0.1902656081311205  0.3963994831551534  0.9766700174116851
  0.8947561191790732  0.6901713842908198  0.5061345590277753
  0.0407116339542519  0.1711354267662069  0.3982948293071764
  0.4628572244884256  0.8820144025215764  0.7024758293101300
  0.3844539922633922  0.9510398207915680  0.1945545115116768
  0.7113452356977491  0.4842500476774876  0.8741606606242995
  0.3060087773155993  0.5186581460178393  0.0999019336172782
  0.0331046452238521  0.7929298635154095  0.6144467107324096
  0.1115770263042004  0.3007509562026873  0.5456997150635585
  0.6011485187077757  0.9892177660315065  0.8063872394902617
  0.4563369700578286  0.0971458819225793  0.3249682974987019
  0.7845383542333897  0.6209938112698611  0.0133015147732467
 
  0.00000000E+00  0.00000000E+00  0.00000000E+00
  0.00000000E+00  0.00000000E+00  0.00000000E+00
  0.00000000E+00  0.00000000E+00  0.00000000E+00
  0.00000000E+00  0.00000000E+00  0.00000000E+00
  0.00000000E+00  0.00000000E+00  0.00000000E+00
  0.00000000E+00  0.00000000E+00  0.00000000E+00
  0.00000000E+00  0.00000000E+00  0.00000000E+00
  0.00000000E+00  0.00000000E+00  0.00000000E+00
  0.00000000E+00  0.00000000E+00  0.00000000E+00
  0.00000000E+00  0.00000000E+00  0.00000000E+00
  0.00000000E+00  0.00000000E+00  0.00000000E+00
  0.00000000E+00  0.00000000E+00  0.00000000E+00
  0.00000000E+00  0.00000000E+00  0.00000000E+00
  0.00000000E+00  0.00000000E+00  0.00000000E+00
  0.00000000E+00  0.00000000E+00  0.00000000E+00
  0.00000000E+00  0.00000000E+00  0.00000000E+00
  0.00000000E+00  0.00000000E+00  0.00000000E+00
  0.00000000E+00  0.00000000E+00  0.00000000E+00
  0.00000000E+00  0.00000000E+00  0.00000000E+00
  0.00000000E+00  0.00000000E+00  0.00000000E+00
  0.00000000E+00  0.00000000E+00  0.00000000E+00
  0.00000000E+00  0.00000000E+00  0.00000000E+00
  0.00000000E+00  0.00000000E+00  0.00000000E+00
  0.00000000E+00  0.00000000E+00  0.00000000E+00
  0.00000000E+00  0.00000000E+00  0.00000000E+00
  0.00000000E+00  0.00000000E+00  0.00000000E+00
  0.00000000E+00  0.00000000E+00  0.00000000E+00
  0.00000000E+00  0.00000000E+00  0.00000000E+00
  0.00000000E+00  0.00000000E+00  0.00000000E+00
  0.00000000E+00  0.00000000E+00  0.00000000E+00
  0.00000000E+00  0.00000000E+00  0.00000000E+00
  0.00000000E+00  0.00000000E+00  0.00000000E+00
  0.00000000E+00  0.00000000E+00  0.00000000E+00
  0.00000000E+00  0.00000000E+00  0.00000000E+00
  0.00000000E+00  0.00000000E+00  0.00000000E+00
  0.00000000E+00  0.00000000E+00  0.00000000E+00
  0.00000000E+00  0.00000000E+00  0.00000000E+00
  0.00000000E+00  0.00000000E+00  0.00000000E+00
  0.00000000E+00  0.00000000E+00  0.00000000E+00
