Ca2 Fe9 O13                             
   1.00000000000000     
    -0.0062011358121051   -3.0341572773492040    0.0031626661969082
    -4.9829712210801720    1.5067040935248559    0.8463395824690662
     0.1763474847095286    0.0163315817412243  -16.7664513393114447
   Ca   Fe   O 
     2     9    13
Direct
  0.2191486540043073  0.4349029022100268  0.2321607094809082
  0.7807522052739984  0.5649933132528702  0.7678466909254809
  0.5005462007323231  0.0001199081682515  0.5000697020203759
  0.6490429955510990  0.2955003256191375  0.0422276913521173
  0.3507623702897220  0.7045291253050010  0.9577833280098744
  0.7640162172147384  0.5069103859550879  0.4212427098805165
  0.2359620163978491  0.4931401264003838  0.5787498014638075
  0.9321684245209738  0.8701702276844685  0.1221176340137973
  0.0675222364464076  0.1298254570246797  0.8778692152331686
  0.9889037851398754  0.9847166695858718  0.3368505807129480
  0.0117101293663922  0.0153454772415458  0.6631552009908503
  0.9998977184241014  0.0000233578423803  0.0000168096677768
  0.8861259942772008  0.7727217369375765  0.2290081789176526
  0.1137747455837541  0.2271937504984223  0.7709810191046813
  0.3045066460732357  0.6085424154206223  0.0751832793198375
  0.6952756165119993  0.3913696714810300  0.9247414680534476
  0.5727986520441206  0.1468102608746804  0.1453173068145333
  0.4270214083015702  0.8531456132336359  0.8546893757161484
  0.6194373616704851  0.2377926716336916  0.3180644344348735
  0.3804364902992177  0.7619850625975459  0.6819074135272416
  0.3831309108494736  0.7671508033935694  0.3780250714987119
  0.6167343364378866  0.2328648306763981  0.6220090505669873
  0.1414584696318357  0.2447050528239174  0.4634077025333809
  0.8588664149574399  0.7555408541392055  0.5365756257608751
 
  0.00000000E+00  0.00000000E+00  0.00000000E+00
  0.00000000E+00  0.00000000E+00  0.00000000E+00
  0.00000000E+00  0.00000000E+00  0.00000000E+00
  0.00000000E+00  0.00000000E+00  0.00000000E+00
  0.00000000E+00  0.00000000E+00  0.00000000E+00
  0.00000000E+00  0.00000000E+00  0.00000000E+00
  0.00000000E+00  0.00000000E+00  0.00000000E+00
  0.00000000E+00  0.00000000E+00  0.00000000E+00
  0.00000000E+00  0.00000000E+00  0.00000000E+00
  0.00000000E+00  0.00000000E+00  0.00000000E+00
  0.00000000E+00  0.00000000E+00  0.00000000E+00
  0.00000000E+00  0.00000000E+00  0.00000000E+00
  0.00000000E+00  0.00000000E+00  0.00000000E+00
  0.00000000E+00  0.00000000E+00  0.00000000E+00
  0.00000000E+00  0.00000000E+00  0.00000000E+00
  0.00000000E+00  0.00000000E+00  0.00000000E+00
  0.00000000E+00  0.00000000E+00  0.00000000E+00
  0.00000000E+00  0.00000000E+00  0.00000000E+00
  0.00000000E+00  0.00000000E+00  0.00000000E+00
  0.00000000E+00  0.00000000E+00  0.00000000E+00
  0.00000000E+00  0.00000000E+00  0.00000000E+00
  0.00000000E+00  0.00000000E+00  0.00000000E+00
  0.00000000E+00  0.00000000E+00  0.00000000E+00
  0.00000000E+00  0.00000000E+00  0.00000000E+00
