Ca2 V4 S6 O24                           
   1.00000000000000     
     7.6708220000000003    0.1613890000000000    4.5646639999999996
     2.6481629999999998    7.1687130000000003    4.5591059999999999
     0.1236010000000000    0.1563800000000000    8.9578650000000000
   Ca   V    S    O 
     2     4     6    24
Direct
  0.2512785413035338  0.8404648614852378  0.5741771168116876
  0.9631840288921806  0.0376676407851542 -0.0035397320110775
  0.6561817384615135  0.6213536962375577  0.6590046764679754
  0.1513983255055072  0.1394616197131619  0.1398504838373453
  0.8345822230233695  0.8516765565285679  0.8486669122338454
  0.3606715292803325  0.3609924712512927  0.3472163703766694
  0.9704550646534102  0.2441720756938792  0.5414826330984664
  0.4364416728133793  0.0312441310249942  0.7553344530142748
  0.5563599454417796  0.9621339844542685  0.2398927318454170
  0.7528601494037830  0.4402043598206871  0.0368803706279631
  0.2434149076779875  0.5478461772833071  0.9601047609911912
  0.0444634931608788  0.7458858324115111  0.4452498219456404
  0.4091167435976970  0.5539132353640212  0.7850979077718550
  0.8852763377090213  0.2547041416554190  0.1204026653295154
  0.8058410517985068  0.4136222637460195  0.5311678590508647
  0.0784618114473870  0.8929517401639868  0.2559699903583739
  0.5613583519249390  0.8148171282746760  0.4246534021437729
  0.2416666806834626  0.0985050542899526  0.8858208640772924
  0.7348366765330339  0.9020813837146895  0.0959462656079051
  0.2175818749618640  0.5823846652563575  0.4555949909594407
  0.0938886092607820  0.7381201214031414  0.9021371324838062
  0.4636230961061010  0.1774653079853939  0.5719290010917853
  0.9276767271309858  0.0880535585405503  0.7271656267462273
  0.5715188681614637  0.4804528885303742  0.1802693329215689
  1.0355249328957163  0.1666720293226186  0.4008919814568256
  0.4527478206058036  0.8603090759783210  0.7484109855540420
  0.3953118513249763 -0.0257377791890213  0.2219015725123197
  0.7468639108885199  0.4103310316432514  0.8912702909677289
  0.1880663232657710  0.3975952819938407  1.0102645190285360
  0.8906134384929372  0.7026348630191170  0.4834640993793261
  0.1275408573253586  0.2646993878609566  0.5329805136250848
  0.5683641781466955  0.9867524236853704  0.8340438568574644
  0.5363898680050149  0.1411411962023517  0.2280361572012358
  0.8281066975942715  0.5873847747137686  0.9516438738219455
  0.2700140683844252  0.5414834049733911  0.1093523063927347
 -0.0028242972131958  0.8244126795522324  0.5816618538790534
 
             NaN             NaN             NaN
             NaN             NaN             NaN
             NaN             NaN             NaN
             NaN             NaN             NaN
             NaN             NaN             NaN
             NaN             NaN             NaN
             NaN             NaN             NaN
             NaN             NaN             NaN
             NaN             NaN             NaN
             NaN             NaN             NaN
             NaN             NaN             NaN
             NaN             NaN             NaN
             NaN             NaN             NaN
             NaN             NaN             NaN
             NaN             NaN             NaN
             NaN             NaN             NaN
             NaN             NaN             NaN
             NaN             NaN             NaN
             NaN             NaN             NaN
             NaN             NaN             NaN
             NaN             NaN             NaN
             NaN             NaN             NaN
             NaN             NaN             NaN
             NaN             NaN             NaN
             NaN             NaN             NaN
             NaN             NaN             NaN
             NaN             NaN             NaN
             NaN             NaN             NaN
             NaN             NaN             NaN
             NaN             NaN             NaN
             NaN             NaN             NaN
             NaN             NaN             NaN
             NaN             NaN             NaN
             NaN             NaN             NaN
             NaN             NaN             NaN
             NaN             NaN             NaN
