Ca2 V4 S6 O24
1.0
7.670822 0.161389 4.564664
2.648163 7.168713 4.559106
0.123601 0.156380 8.957865
Ca V S O
2 4 6 24
direct
0.318691 0.776501 0.565164 Ca
0.963156 1.022878 1.009576 Ca
0.649422 0.640096 0.655646 V
0.142184 0.146346 0.144370 V
0.843964 0.851987 0.840977 V
0.363024 0.350971 0.345959 V
0.966740 0.247063 0.537093 S
0.431873 0.038765 0.753731 S
0.558301 0.958613 0.239613 S
0.746216 0.448157 0.044362 S
0.245818 0.547164 0.954191 S
0.037850 0.750710 0.452834 S
0.407820 0.561079 0.776470 O
0.885626 0.258376 0.105933 O
0.827281 0.428566 0.537924 O
0.084135 0.891653 0.262450 O
0.571103 0.791239 0.411013 O
0.243233 0.089772 0.895867 O
0.727790 0.911490 0.085242 O
0.178362 0.567214 0.457172 O
0.092390 0.738663 0.914060 O
0.447119 0.201495 0.582868 O
0.920074 0.098880 0.725898 O
0.572698 0.470955 0.200941 O
0.980787 0.196693 0.399625 O
0.442595 0.885988 0.721493 O
0.387817 1.001304 0.218290 O
0.721267 0.445991 0.896435 O
0.188908 0.401966 0.994003 O
0.855294 0.757445 0.501070 O
0.149586 0.233027 0.506696 O
0.574756 -0.024155 0.826743 O
0.556956 0.115774 0.251207 O
0.820469 0.590020 -0.021900 O
0.284811 0.522664 0.104491 O
0.036767 0.801419 0.585981 O
