Ca1 V4 S6 O24
1.0
7.407996 -0.057749 4.989816
2.407852 6.627303 5.457267
0.043629 -0.597798 8.921648
Ca V S O
1 4 6 24
direct
0.410260 0.630478 0.545457 Ca
0.649292 0.644412 0.646961 V
0.142130 0.146616 0.144810 V
0.846589 0.847045 0.847820 V
0.354703 0.351328 0.346674 V
0.954758 0.249183 0.530618 S
0.454320 0.041247 0.746954 S
0.537217 0.959521 0.244588 S
0.746663 0.455591 0.042726 S
0.247153 0.535457 0.954668 S
0.044156 0.745706 0.461249 S
0.390571 0.598460 0.762173 O
0.926665 0.303361 0.044150 O
0.778523 0.397033 0.592143 O
0.048625 0.924718 0.308427 O
0.597813 0.773339 0.392720 O
0.306742 0.044186 0.929592 O
0.677705 0.956666 0.057736 O
0.219559 0.592414 0.413083 O
0.060263 0.686144 0.958831 O
0.401622 0.223400 0.597881 O
0.959188 0.061463 0.680077 O
0.597860 0.409617 0.227831 O
0.959464 0.261304 0.357979 O
0.475488 0.889144 0.711257 O
0.347900 0.980951 0.271136 O
0.703599 0.481246 0.894272 O
0.254553 0.358858 0.973385 O
0.884520 0.718985 0.497461 O
0.117170 0.274546 0.495506 O
0.631752 0.018191 0.739313 O
0.520196 0.111441 0.273372 O
0.749896 0.628709 0.015636 O
0.289808 0.507733 0.103558 O
0.033868 0.740999 0.633808 O
