Ni32 P12
1.0
-3.306500 -5.727026 0.000000
-6.613000 0.000000 0.000000
-3.306500 -1.909009 -12.638000
Ni P
32 12
direct
0.500000 0.500000 0.500000 Ni0+
0.000000 0.000000 0.000000 Ni0+
0.838500 0.838500 0.484500 Ni0+
0.338500 0.338500 0.984500 Ni0+
0.562900 0.562900 0.311300 Ni0+
0.062900 0.062900 0.811300 Ni0+
0.720900 0.720900 0.837300 Ni0+
0.220900 0.220900 0.337300 Ni0+
0.436400 0.660400 0.002000 Ni0+
0.901200 0.436400 0.002000 Ni0+
0.660400 0.901200 0.002000 Ni0+
0.160400 0.936400 0.502000 Ni0+
0.401200 0.160400 0.502000 Ni0+
0.936400 0.401200 0.502000 Ni0+
0.146100 0.392500 0.816500 Ni0+
0.644900 0.146100 0.816500 Ni0+
0.392500 0.644900 0.816500 Ni0+
0.892500 0.646100 0.316500 Ni0+
0.144900 0.892500 0.316500 Ni0+
0.646100 0.144900 0.316500 Ni0+
0.563500 0.924500 0.208400 Ni0+
0.303600 0.563500 0.208400 Ni0+
0.924500 0.303600 0.208400 Ni0+
0.424500 0.063500 0.708400 Ni0+
0.803600 0.424500 0.708400 Ni0+
0.063500 0.803600 0.708400 Ni0+
0.134800 0.494100 0.605300 Ni0+
0.765800 0.134800 0.605300 Ni0+
0.494100 0.765800 0.605300 Ni0+
0.994100 0.634800 0.105300 Ni0+
0.265800 0.994100 0.105300 Ni0+
0.634800 0.265800 0.105300 Ni0+
0.781000 0.781000 0.657000 P0+
0.281000 0.281000 0.157000 P0+
0.937600 0.937600 0.187200 P0+
0.437600 0.437600 0.687200 P0+
0.620300 0.620300 0.139100 P0+
0.120300 0.120300 0.639100 P0+
0.350200 0.029600 0.902400 P0+
0.717800 0.350200 0.902400 P0+
0.029600 0.717800 0.902400 P0+
0.529600 0.850200 0.402400 P0+
0.217800 0.529600 0.402400 P0+
0.850200 0.217800 0.402400 P0+
