Ca2 Co4 S6 O24
1.0
7.652856 0.054406 4.455161
2.683751 7.009038 4.543492
0.239489 -0.012487 8.835793
Ca Co S O
2 4 6 24
direct
0.379491 0.679891 0.543115 Ca
0.976103 1.009498 1.008397 Ca
0.650724 0.644642 0.651173 Co
0.140872 0.150498 0.143673 Co
0.843918 0.849141 0.844584 Co
0.359584 0.348750 0.348912 Co
0.963954 0.247585 0.537107 S
0.438722 0.041120 0.750333 S
0.551609 0.956269 0.240628 S
0.744384 0.451876 0.046770 S
0.249974 0.542076 0.954376 S
0.037173 0.750521 0.453357 S
0.413623 0.559510 0.774372 O
0.890783 0.261562 0.092575 O
0.809319 0.423404 0.546643 O
0.078839 0.897983 0.265174 O
0.570100 0.779346 0.406121 O
0.250751 0.080601 0.901380 O
0.726196 0.923223 0.078991 O
0.192132 0.572654 0.451584 O
0.093079 0.731832 0.923299 O
0.441485 0.214197 0.584007 O
0.927628 0.092771 0.724325 O
0.572615 0.459229 0.213121 O
0.981743 0.198873 0.393747 O
0.456706 0.890288 0.707307 O
0.386579 0.997648 0.209934 O
0.713253 0.468746 0.891828 O
0.196540 0.394848 0.985984 O
0.864696 0.740581 0.491790 O
0.137665 0.254729 0.502835 O
0.585596 -0.016746 0.816351 O
0.539631 0.110141 0.270490 O
0.811405 0.595364 -0.000182 O
0.290607 0.510356 0.108999 O
0.019964 0.802227 0.596655 O
