Ca2 Co4 S6 O24                          
   1.00000000000000     
     7.6693309999999997    0.0558010000000000    4.4459109999999997
     2.7081200000000001    6.9952329999999998    4.5599509999999999
     0.2669800000000000   -0.0218350000000000    8.8456609999999998
   Ca   Co   S    O 
     2     4     6    24
Direct
  0.3165529521124025  0.7056554520725666  0.5431154440798697
  0.9877627197556411  0.0166916620298930 -0.0127488256665185
  0.6522464338158775  0.6377834778910419  0.6611698474932119
  0.1426163965263939  0.1508035294758787  0.1427044881411801
  0.8341321398115884  0.8574056864230903  0.8471962325566376
  0.3570851646138830  0.3547886249845701  0.3509027878109612
  0.9741746674735154  0.2452727133668947  0.5352532691948736
  0.4381707925096591  0.0431617502075245  0.7520200503335827
  0.5539382777764421  0.9585900171594343  0.2457448154899334
  0.7390712422297778  0.4492262652701189  0.0536079094755399
  0.2529388053568443  0.5421749115567863  0.9571633786195737
  0.0294146432219626  0.7599064796411797  0.4422277739982484
  0.4342044691903167  0.5277973177037613  0.7920722396683333
  0.8790691826038090  0.2550067735297615  0.1133937395324297
  0.8217081535125406  0.4282548021342330  0.5364661860574994
  0.0918410838066853  0.8947868468623174  0.2499555186321073
  0.5658875559319576  0.7929852890805499  0.4231565696438404
  0.2430498869819965  0.1035242152679302  0.8918798186354386
  0.7339625205668209  0.9095280916573562  0.0906906002198195
  0.1916183178561017  0.5774046890943032  0.4661462936751761
  0.1157034414498776  0.7353693419585685  0.8805202906598018
  0.4578475737906101  0.2028091788277443  0.5741233123643313
  0.9231794901079658  0.0948306463064268  0.7243492785693215
  0.5559973196859849  0.4716977035907697  0.2106931059473159
  0.9994372638804532  0.1921805887464705  0.3908172118842010
  0.4536240238307311  0.8778830514999993  0.7327398259818134
  0.3890804236459633 -0.0228528097505188  0.2257033590114131
  0.7228315239122690  0.4567975357862847  0.8920496390113275
  0.1936683721442494  0.3942568759976084  1.0011670066134968
  0.8631833611356158  0.7457830859504825  0.4671344553492183
  0.1535400074665473  0.2422295165382517  0.5122434174087889
  0.5753968719098419  0.9881787355865796  0.8313803388779569
  0.5365694320784776  0.1299252357087675  0.2503674929755486
  0.8080673790501034  0.5943587624065310  1.0009194069728793
  0.2656902611553938  0.5382299489055432  0.1157857881377406
 -0.0068497203921150  0.8294043507484961  0.5831883979286796
 
             NaN             NaN             NaN
             NaN             NaN             NaN
             NaN             NaN             NaN
             NaN             NaN             NaN
             NaN             NaN             NaN
             NaN             NaN             NaN
             NaN             NaN             NaN
             NaN             NaN             NaN
             NaN             NaN             NaN
             NaN             NaN             NaN
             NaN             NaN             NaN
             NaN             NaN             NaN
             NaN             NaN             NaN
             NaN             NaN             NaN
             NaN             NaN             NaN
             NaN             NaN             NaN
             NaN             NaN             NaN
             NaN             NaN             NaN
             NaN             NaN             NaN
             NaN             NaN             NaN
             NaN             NaN             NaN
             NaN             NaN             NaN
             NaN             NaN             NaN
             NaN             NaN             NaN
             NaN             NaN             NaN
             NaN             NaN             NaN
             NaN             NaN             NaN
             NaN             NaN             NaN
             NaN             NaN             NaN
             NaN             NaN             NaN
             NaN             NaN             NaN
             NaN             NaN             NaN
             NaN             NaN             NaN
             NaN             NaN             NaN
             NaN             NaN             NaN
             NaN             NaN             NaN
