Mn36 P24 O96                            
   1.00000000000000     
     7.7079579157004101   -0.0000004041645590   -4.5580911251212406
    -0.0000005631998304   10.0604031483045215   -0.0000000448651202
    -0.0329077000357491   -0.0000001155846572   24.1161507467852587
   Mn   P    O 
    36    24    96
Direct
  0.9945139194805392  0.4056184658125161  0.5594769389268990
  0.0054871877034088  0.9056214795874524  0.9405226901111376
  0.0054871783884778  0.5943785565410664  0.4405227007675450
  0.9945139208173686  0.0943815469500890  0.0594769451220571
  0.0108868378818627  0.4165639453320296  0.2168718086584533
  0.9891391433775567  0.9165565825221051  0.2831354750063539
  0.9891403409810096  0.5834425782527646  0.7831360569383676
  0.0108867642164441  0.0834361657565736  0.7168718281916355
  0.9938717786069731  0.3945590315077183  0.8936129950413800
  0.0061165795992437  0.8945561088873646  0.6063868667797934
  0.0061167592811060  0.6054439048402571  0.1063868837905133
  0.9938729225465437  0.1054408770662505  0.3936130481505273
  0.2994057839856907  0.1160195555531303  0.5759013764940519
  0.7005953177591877  0.6160258001967875  0.9241014657765305
  0.7005953706003680  0.8839742164373519  0.4241014759955988
  0.2994057887860677  0.3839804911847082  0.0759014171104653
  0.2864410277241518  0.1105488961066357  0.2423767262928536
  0.7135638306737420  0.6105475689323185  0.2576222367532353
  0.7135637468525218  0.8894524891741753  0.7576222273619493
  0.2864408813836974  0.3894510772452833  0.7423767074285976
  0.3104941376369439  0.1130424113819046  0.9164781790499461
  0.6895027979499559  0.6130423113630386  0.5835216522901021
  0.6895028576577218  0.8869577501313302  0.0835216284001419
  0.3104942082043749  0.3869573701760558  0.4164781643196207
  0.4040687755668273  0.7204523656745891  0.6408625440091384
  0.5959158648085179  0.2204391046050418  0.8591400899579114
  0.5959160955719938  0.2795609169083377  0.3591400525276285
  0.4040689443020256  0.7795477707431218  0.1408624996858379
  0.3952220885118862  0.7037757707681038  0.2960125742983166
  0.6048017868089488  0.2037725986062142  0.2039887646236593
  0.6048016273225443  0.2962274052280804  0.7039887821775750
  0.3952219920526687  0.7962242860842323  0.7960126039518514
  0.4134328961419698  0.7158719330557872  0.9573768838805421
  0.5865673507521194  0.2158725812362263  0.5426230165594745
  0.5865675657067015  0.2841273413084906  0.0426231026621835
  0.4134329263674132  0.7841281036293282  0.4573768934197062
  0.3609952151539062  0.4434037473833214  0.5610753573520668
  0.6390058778876053  0.9434033025312161  0.9389249478592774
  0.6390058644619572  0.5565967617320169  0.4389249456043842
  0.3609951707245216  0.0565963116562713  0.0610753627801515
  0.3688508335651477  0.4312986718235905  0.2181178882882904
  0.6311496411817927  0.9312986930932183  0.2818831589574700
  0.6311495984180340  0.5687014576632095  0.7818831405300415
  0.3688507817295132  0.0687013501894782  0.7181179004279272
  0.3612758518103902  0.4245356351445437  0.8943183973926381
  0.6387238649457174  0.9245374897209686  0.6056821086006252
  0.6387238612472430  0.5754625379149658  0.1056820551128226
  0.3612756953506633  0.0754639776392665  0.3943181611538051
  0.1267983786690579  0.8538166606166584  0.4993347566463200
  0.8731986865358010  0.3538188017295809  0.0006633980594373
  0.8731986754657441  0.1461812651340324  0.5006633735281270
  0.1267983659533130  0.6461833393773873  0.9993347851984211
  0.1221698820347754  0.8697011719299326  0.1725419272660176
  0.8778259640938302  0.3696982810197582  0.3274561092407495
  0.8778259205629553  0.1303017137263964  0.8274561264268030
  0.1221698102897619  0.6302988836401653  0.6725419939131143
  0.1392428856162979  0.8562223472467281  0.8311615571958697
  0.8607616079943980  0.3562139232440984  0.6688383857825499
  0.8607616636223412  0.1437862107963426  0.1688383595721348
  0.1392430379664873  0.6437775408457114  0.3311615882524563
  0.1680509740276293  0.4789461053193378  0.5217461705274218
  0.8319433692622766  0.9789548664913781  0.9782524911712542
  0.8319433923137893  0.5210451946518972  0.4782524990845047
  0.1680509831191728  0.0210539336406939  0.0217461742264646
  0.1754435927216562  0.4664611200623696  0.1753652986444934
  0.8245586218904108  0.9664550481179219  0.3246343731634340
  0.8245585227904968  0.5335450392729655  0.8246343664605860
  0.1754434639753768  0.0335389424536032  0.6753653023988235
  0.1710519828098001  0.4694524669402895  0.8628091965998905
  0.8289490131604396  0.9694468556014328  0.6371954135307476
  0.8289490463124238  0.5305532305135614  0.1371953905792509
  0.1710518375929055  0.0305469674217846  0.3628089425945049
  0.1896482849312733  0.8486966811903329  0.5724798514657081
  0.8103460990145805  0.3487073759471500  0.9275180766433095
  0.8103462598203137  0.1512926731232085  0.4275180666893164
  0.1896483175837957  0.6513034681028387  0.0724798684169912
  0.1306612844979469  0.9220775905861274  0.2339036139509219
  0.8693386791421176  0.4220816164874961  0.2660956770313589
  0.8693385860203477  0.0779184420964469  0.7660956653838724
  0.1306612353275867  0.5779224246117280  0.7339036575289342
  0.1644733231570186  0.9356140073379891  0.8896564063628176
  0.8355249142787500  0.4356160574306429  0.6103441674918670
  0.8355249149874240  0.0643840101952193  0.1103441603545150
  0.1644732590734961  0.5643859814701244  0.3896563932919150
  0.4712772752636667  0.5669914223997239  0.5973507794819071
  0.5287146391691877  0.0669851343650123  0.9026475219812653
  0.5287146429951477  0.4330148754980385  0.4026475262241291
  0.4712773271663053  0.9330086242796582  0.0973507815031027
  0.4793547658197213  0.5512281992178529  0.2568650549160552
  0.5206479750549065  0.0512248192630409  0.2431335984194973
  0.5206479599850482  0.4487751781791758  0.7431336230523726
  0.4793547490606329  0.9487719045921637  0.7568650678670963
  0.4870610286427919  0.5401331810181205  0.9300360876345763
  0.5129412526550112  0.0401324349281751  0.5699618337126893
  0.5129412595051051  0.4598676509890538  0.0699618076257593
  0.4870617294415638  0.9598664947825668  0.4300361622872018
  0.2345354520001806  0.7582718470993228  0.4847657598041550
  0.7654594534186003  0.2582744240444228  0.0152314047379107
  0.7654593518583326  0.2417255623687282  0.5152313572507623
  0.2345354705236318  0.7417282084803887  0.9847657458270049
  0.2617236411578574  0.7609661922843998  0.1921250710237601
  0.7382759110654433  0.2609617373109288  0.3078726844590634
  0.7382759457846930  0.2390382709045582  0.8078727416087048
  0.2617235949705616  0.7390338630245452  0.6921251281372918
  0.2719976447399404  0.7420856351247593  0.8543174105443967
  0.7280076351112257  0.2420776047145949  0.6456804853193390
  0.7280076469067254  0.2579224717586897  0.1456804747799652
  0.2719978862931924  0.7579141921856163  0.3543174371462570
  0.4269315089974555  0.3921902268347282  0.5170849187930386
  0.5730691129604466  0.8921852072231289  0.9829144346459273
  0.5730691398648986  0.6078148396731677  0.4829144411746995
  0.4269315215916976  0.1078097092742141  0.0170849363610728
  0.4418765709936778  0.3833421035526570  0.1762037358809962
  0.5581242583367256  0.8833525939249682  0.3238001735670153
  0.5581242526355723  0.6166474359859322  0.8238001952539307
  0.4418765131239724  0.1166579760451398  0.6762037568250676
  0.4002249311452175  0.3671632883826845  0.8439542515324874
  0.5997574724092090  0.8671662088336944  0.6560422407051405
  0.5997574328701702  0.6328339088362398  0.1560422032269173
  0.4002253742462472  0.1328367354640392  0.3439540674921417
  0.1392950547811935  0.9988488918663023  0.4825419778121827
  0.8606998469372158  0.4988512404201089  0.0174566666556970
  0.8606999094432481  0.0011488428809585  0.5174566897958570
  0.1392950093721339  0.5011511602201892  0.9825420531917999
  0.1675402775333410  0.9867899000089579  0.1429215980495329
  0.8324538601213831  0.4867806961560959  0.3570795332171457
  0.8324537577598932  0.0132192612539725  0.8570795236735975
  0.1675402582339061  0.5132101485052658  0.6429216273199572
  0.1763361917703392  0.9405600196619588  0.7865324942895953
  0.8236759310245176  0.4405385752524325  0.7134733918187379
  0.8236758505868806  0.0594614685633701  0.2134733544787366
  0.1763361549698530  0.5594399895265951  0.2865324639391957
  0.3862406812131667  0.3298351046591250  0.6072688796852503
  0.6137660041079656  0.8298354807425667  0.8927309579838507
  0.6137660243426950  0.6701645509867546  0.3927309562498706
  0.3862406687049500  0.1701649396877940  0.1072688796688581
  0.3829266239901017  0.3178397423477648  0.2631020822995467
  0.6170663880308069  0.8178312049537624  0.2369011262412428
  0.6170662542979457  0.6821688838542173  0.7369011286947753
  0.3829266260220123  0.1821603553524085  0.7631020970508615
  0.3904539596278198  0.3141069528977809  0.9427275473991514
  0.6095435075797511  0.8141055954816494  0.5572734168587985
  0.6095435638408944  0.6858944589399698  0.0572733824410463
  0.3904526944914934  0.1858928007206160  0.4427273484702781
  0.9415775836356062  0.7963099559069207  0.4587739394206238
  0.0584192640148089  0.2963128370434021  0.0412245666342415
  0.0584192447502545  0.2036872468193138  0.5412245719841238
  0.9415775563877702  0.7036900819038010  0.9587739346690256
  0.9480524246749056  0.8025996691704478  0.1250979628718127
  0.0519464791543172  0.3026018424892669  0.3748998004319901
  0.0519465052601831  0.1973980412593548  0.8748998503948187
  0.9480524365259413  0.6974003726709626  0.6250979924756095
  0.9574589401050346  0.7917815664983436  0.7953025993302774
  0.0425495527739628  0.2917786447001589  0.7046929187024560
  0.0425495330800132  0.2082214229931623  0.2046928926974800
  0.9574589639880884  0.7082183571082439  0.2953025810532921
 
  0.00000000E+00  0.00000000E+00  0.00000000E+00
  0.00000000E+00  0.00000000E+00  0.00000000E+00
  0.00000000E+00  0.00000000E+00  0.00000000E+00
  0.00000000E+00  0.00000000E+00  0.00000000E+00
  0.00000000E+00  0.00000000E+00  0.00000000E+00
  0.00000000E+00  0.00000000E+00  0.00000000E+00
  0.00000000E+00  0.00000000E+00  0.00000000E+00
  0.00000000E+00  0.00000000E+00  0.00000000E+00
  0.00000000E+00  0.00000000E+00  0.00000000E+00
  0.00000000E+00  0.00000000E+00  0.00000000E+00
  0.00000000E+00  0.00000000E+00  0.00000000E+00
  0.00000000E+00  0.00000000E+00  0.00000000E+00
  0.00000000E+00  0.00000000E+00  0.00000000E+00
  0.00000000E+00  0.00000000E+00  0.00000000E+00
  0.00000000E+00  0.00000000E+00  0.00000000E+00
  0.00000000E+00  0.00000000E+00  0.00000000E+00
  0.00000000E+00  0.00000000E+00  0.00000000E+00
  0.00000000E+00  0.00000000E+00  0.00000000E+00
  0.00000000E+00  0.00000000E+00  0.00000000E+00
  0.00000000E+00  0.00000000E+00  0.00000000E+00
  0.00000000E+00  0.00000000E+00  0.00000000E+00
  0.00000000E+00  0.00000000E+00  0.00000000E+00
  0.00000000E+00  0.00000000E+00  0.00000000E+00
  0.00000000E+00  0.00000000E+00  0.00000000E+00
  0.00000000E+00  0.00000000E+00  0.00000000E+00
  0.00000000E+00  0.00000000E+00  0.00000000E+00
  0.00000000E+00  0.00000000E+00  0.00000000E+00
  0.00000000E+00  0.00000000E+00  0.00000000E+00
  0.00000000E+00  0.00000000E+00  0.00000000E+00
  0.00000000E+00  0.00000000E+00  0.00000000E+00
  0.00000000E+00  0.00000000E+00  0.00000000E+00
  0.00000000E+00  0.00000000E+00  0.00000000E+00
  0.00000000E+00  0.00000000E+00  0.00000000E+00
  0.00000000E+00  0.00000000E+00  0.00000000E+00
  0.00000000E+00  0.00000000E+00  0.00000000E+00
  0.00000000E+00  0.00000000E+00  0.00000000E+00
  0.00000000E+00  0.00000000E+00  0.00000000E+00
  0.00000000E+00  0.00000000E+00  0.00000000E+00
  0.00000000E+00  0.00000000E+00  0.00000000E+00
  0.00000000E+00  0.00000000E+00  0.00000000E+00
  0.00000000E+00  0.00000000E+00  0.00000000E+00
  0.00000000E+00  0.00000000E+00  0.00000000E+00
  0.00000000E+00  0.00000000E+00  0.00000000E+00
  0.00000000E+00  0.00000000E+00  0.00000000E+00
  0.00000000E+00  0.00000000E+00  0.00000000E+00
  0.00000000E+00  0.00000000E+00  0.00000000E+00
  0.00000000E+00  0.00000000E+00  0.00000000E+00
  0.00000000E+00  0.00000000E+00  0.00000000E+00
  0.00000000E+00  0.00000000E+00  0.00000000E+00
  0.00000000E+00  0.00000000E+00  0.00000000E+00
  0.00000000E+00  0.00000000E+00  0.00000000E+00
  0.00000000E+00  0.00000000E+00  0.00000000E+00
  0.00000000E+00  0.00000000E+00  0.00000000E+00
  0.00000000E+00  0.00000000E+00  0.00000000E+00
  0.00000000E+00  0.00000000E+00  0.00000000E+00
  0.00000000E+00  0.00000000E+00  0.00000000E+00
  0.00000000E+00  0.00000000E+00  0.00000000E+00
  0.00000000E+00  0.00000000E+00  0.00000000E+00
  0.00000000E+00  0.00000000E+00  0.00000000E+00
  0.00000000E+00  0.00000000E+00  0.00000000E+00
  0.00000000E+00  0.00000000E+00  0.00000000E+00
  0.00000000E+00  0.00000000E+00  0.00000000E+00
  0.00000000E+00  0.00000000E+00  0.00000000E+00
  0.00000000E+00  0.00000000E+00  0.00000000E+00
  0.00000000E+00  0.00000000E+00  0.00000000E+00
  0.00000000E+00  0.00000000E+00  0.00000000E+00
  0.00000000E+00  0.00000000E+00  0.00000000E+00
  0.00000000E+00  0.00000000E+00  0.00000000E+00
  0.00000000E+00  0.00000000E+00  0.00000000E+00
  0.00000000E+00  0.00000000E+00  0.00000000E+00
  0.00000000E+00  0.00000000E+00  0.00000000E+00
  0.00000000E+00  0.00000000E+00  0.00000000E+00
  0.00000000E+00  0.00000000E+00  0.00000000E+00
  0.00000000E+00  0.00000000E+00  0.00000000E+00
  0.00000000E+00  0.00000000E+00  0.00000000E+00
  0.00000000E+00  0.00000000E+00  0.00000000E+00
  0.00000000E+00  0.00000000E+00  0.00000000E+00
  0.00000000E+00  0.00000000E+00  0.00000000E+00
  0.00000000E+00  0.00000000E+00  0.00000000E+00
  0.00000000E+00  0.00000000E+00  0.00000000E+00
  0.00000000E+00  0.00000000E+00  0.00000000E+00
  0.00000000E+00  0.00000000E+00  0.00000000E+00
  0.00000000E+00  0.00000000E+00  0.00000000E+00
  0.00000000E+00  0.00000000E+00  0.00000000E+00
  0.00000000E+00  0.00000000E+00  0.00000000E+00
  0.00000000E+00  0.00000000E+00  0.00000000E+00
  0.00000000E+00  0.00000000E+00  0.00000000E+00
  0.00000000E+00  0.00000000E+00  0.00000000E+00
  0.00000000E+00  0.00000000E+00  0.00000000E+00
  0.00000000E+00  0.00000000E+00  0.00000000E+00
  0.00000000E+00  0.00000000E+00  0.00000000E+00
  0.00000000E+00  0.00000000E+00  0.00000000E+00
  0.00000000E+00  0.00000000E+00  0.00000000E+00
  0.00000000E+00  0.00000000E+00  0.00000000E+00
  0.00000000E+00  0.00000000E+00  0.00000000E+00
  0.00000000E+00  0.00000000E+00  0.00000000E+00
  0.00000000E+00  0.00000000E+00  0.00000000E+00
  0.00000000E+00  0.00000000E+00  0.00000000E+00
  0.00000000E+00  0.00000000E+00  0.00000000E+00
  0.00000000E+00  0.00000000E+00  0.00000000E+00
  0.00000000E+00  0.00000000E+00  0.00000000E+00
  0.00000000E+00  0.00000000E+00  0.00000000E+00
  0.00000000E+00  0.00000000E+00  0.00000000E+00
  0.00000000E+00  0.00000000E+00  0.00000000E+00
  0.00000000E+00  0.00000000E+00  0.00000000E+00
  0.00000000E+00  0.00000000E+00  0.00000000E+00
  0.00000000E+00  0.00000000E+00  0.00000000E+00
  0.00000000E+00  0.00000000E+00  0.00000000E+00
  0.00000000E+00  0.00000000E+00  0.00000000E+00
  0.00000000E+00  0.00000000E+00  0.00000000E+00
  0.00000000E+00  0.00000000E+00  0.00000000E+00
  0.00000000E+00  0.00000000E+00  0.00000000E+00
  0.00000000E+00  0.00000000E+00  0.00000000E+00
  0.00000000E+00  0.00000000E+00  0.00000000E+00
  0.00000000E+00  0.00000000E+00  0.00000000E+00
  0.00000000E+00  0.00000000E+00  0.00000000E+00
  0.00000000E+00  0.00000000E+00  0.00000000E+00
  0.00000000E+00  0.00000000E+00  0.00000000E+00
  0.00000000E+00  0.00000000E+00  0.00000000E+00
  0.00000000E+00  0.00000000E+00  0.00000000E+00
  0.00000000E+00  0.00000000E+00  0.00000000E+00
  0.00000000E+00  0.00000000E+00  0.00000000E+00
  0.00000000E+00  0.00000000E+00  0.00000000E+00
  0.00000000E+00  0.00000000E+00  0.00000000E+00
  0.00000000E+00  0.00000000E+00  0.00000000E+00
  0.00000000E+00  0.00000000E+00  0.00000000E+00
  0.00000000E+00  0.00000000E+00  0.00000000E+00
  0.00000000E+00  0.00000000E+00  0.00000000E+00
  0.00000000E+00  0.00000000E+00  0.00000000E+00
  0.00000000E+00  0.00000000E+00  0.00000000E+00
  0.00000000E+00  0.00000000E+00  0.00000000E+00
  0.00000000E+00  0.00000000E+00  0.00000000E+00
  0.00000000E+00  0.00000000E+00  0.00000000E+00
  0.00000000E+00  0.00000000E+00  0.00000000E+00
  0.00000000E+00  0.00000000E+00  0.00000000E+00
  0.00000000E+00  0.00000000E+00  0.00000000E+00
  0.00000000E+00  0.00000000E+00  0.00000000E+00
  0.00000000E+00  0.00000000E+00  0.00000000E+00
  0.00000000E+00  0.00000000E+00  0.00000000E+00
  0.00000000E+00  0.00000000E+00  0.00000000E+00
  0.00000000E+00  0.00000000E+00  0.00000000E+00
  0.00000000E+00  0.00000000E+00  0.00000000E+00
  0.00000000E+00  0.00000000E+00  0.00000000E+00
  0.00000000E+00  0.00000000E+00  0.00000000E+00
  0.00000000E+00  0.00000000E+00  0.00000000E+00
  0.00000000E+00  0.00000000E+00  0.00000000E+00
  0.00000000E+00  0.00000000E+00  0.00000000E+00
  0.00000000E+00  0.00000000E+00  0.00000000E+00
  0.00000000E+00  0.00000000E+00  0.00000000E+00
  0.00000000E+00  0.00000000E+00  0.00000000E+00
  0.00000000E+00  0.00000000E+00  0.00000000E+00
  0.00000000E+00  0.00000000E+00  0.00000000E+00
  0.00000000E+00  0.00000000E+00  0.00000000E+00
  0.00000000E+00  0.00000000E+00  0.00000000E+00
  0.00000000E+00  0.00000000E+00  0.00000000E+00
  0.00000000E+00  0.00000000E+00  0.00000000E+00
