Mn36 P24 O96
1.0
7.709858 0.000000 -4.541453
0.000000 10.050000 0.000000
0.000000 0.000000 24.084000
Mn P O
36 24 96
direct
0.995230 0.405840 0.559740 Mn2+
0.004770 0.905840 0.940260 Mn2+
0.004770 0.594160 0.440260 Mn2+
0.995230 0.094160 0.059740 Mn2+
0.009040 0.415650 0.216730 Mn2+
0.990960 0.915650 0.283270 Mn2+
0.990960 0.584350 0.783270 Mn2+
0.009040 0.084350 0.716730 Mn2+
0.993550 0.394220 0.893200 Mn2+
0.006450 0.894220 0.606800 Mn2+
0.006450 0.605780 0.106800 Mn2+
0.993550 0.105780 0.393200 Mn2+
0.297600 0.113580 0.575720 Mn2+
0.702400 0.613580 0.924280 Mn2+
0.702400 0.886420 0.424280 Mn2+
0.297600 0.386420 0.075720 Mn2+
0.287070 0.110790 0.243500 Mn2+
0.712930 0.610790 0.256500 Mn2+
0.712930 0.889210 0.756500 Mn2+
0.287070 0.389210 0.743500 Mn2+
0.311440 0.112360 0.916850 Mn2+
0.688560 0.612360 0.583150 Mn2+
0.688560 0.887640 0.083150 Mn2+
0.311440 0.387640 0.416850 Mn2+
0.403760 0.719560 0.640520 Mn2+
0.596240 0.219560 0.859480 Mn2+
0.596240 0.280440 0.359480 Mn2+
0.403760 0.780440 0.140520 Mn2+
0.397350 0.704430 0.296380 Mn2+
0.602650 0.204430 0.203620 Mn2+
0.602650 0.295570 0.703620 Mn2+
0.397350 0.795570 0.796380 Mn2+
0.412330 0.716010 0.957170 Mn2+
0.587670 0.216010 0.542830 Mn2+
0.587670 0.283990 0.042830 Mn2+
0.412330 0.783990 0.457170 Mn2+
0.360630 0.443390 0.560900 P5+
0.639370 0.943390 0.939100 P5+
0.639370 0.556610 0.439100 P5+
0.360630 0.056610 0.060900 P5+
0.368380 0.431560 0.218140 P5+
0.631620 0.931560 0.281860 P5+
0.631620 0.568440 0.781860 P5+
0.368380 0.068440 0.718140 P5+
0.361360 0.424660 0.894440 P5+
0.638640 0.924660 0.605560 P5+
0.638640 0.575340 0.105560 P5+
0.361360 0.075340 0.394440 P5+
0.126890 0.854100 0.499060 P5+
0.873110 0.354100 0.000940 P5+
0.873110 0.145900 0.500940 P5+
0.126890 0.645900 0.999060 P5+
0.121560 0.869020 0.172110 P5+
0.878440 0.369020 0.327890 P5+
0.878440 0.130980 0.827890 P5+
0.121560 0.630980 0.672110 P5+
0.138550 0.856830 0.830950 P5+
0.861450 0.356830 0.669050 P5+
0.861450 0.143170 0.169050 P5+
0.138550 0.643170 0.330950 P5+
0.168500 0.479300 0.521030 O2-
0.831500 0.979300 0.978970 O2-
0.831500 0.520700 0.478970 O2-
0.168500 0.020700 0.021030 O2-
0.175500 0.466800 0.175520 O2-
0.824500 0.966800 0.324480 O2-
0.824500 0.533200 0.824480 O2-
0.175500 0.033200 0.675520 O2-
0.172100 0.470100 0.862330 O2-
0.827900 0.970100 0.637670 O2-
0.827900 0.529900 0.137670 O2-
0.172100 0.029900 0.362330 O2-
0.190700 0.850500 0.572100 O2-
0.809300 0.350500 0.927900 O2-
0.809300 0.149500 0.427900 O2-
0.190700 0.649500 0.072100 O2-
0.132100 0.921100 0.233760 O2-
0.867900 0.421100 0.266240 O2-
0.867900 0.078900 0.766240 O2-
0.132100 0.578900 0.733760 O2-
0.165500 0.934700 0.889870 O2-
0.834500 0.434700 0.610130 O2-
0.834500 0.065300 0.110130 O2-
0.165500 0.565300 0.389870 O2-
0.470800 0.566700 0.597220 O2-
0.529200 0.066700 0.902780 O2-
0.529200 0.433300 0.402780 O2-
0.470800 0.933300 0.097220 O2-
0.479300 0.551500 0.256640 O2-
0.520700 0.051500 0.243360 O2-
0.520700 0.448500 0.743360 O2-
0.479300 0.948500 0.756640 O2-
0.486400 0.540800 0.930030 O2-
0.513600 0.040800 0.569970 O2-
0.513600 0.459200 0.069970 O2-
0.486400 0.959200 0.430030 O2-
0.235300 0.758600 0.484930 O2-
0.764700 0.258600 0.015070 O2-
0.764700 0.241400 0.515070 O2-
0.235300 0.741400 0.984930 O2-
0.260200 0.759700 0.191230 O2-
0.739800 0.259700 0.308770 O2-
0.739800 0.240300 0.808770 O2-
0.260200 0.740300 0.691230 O2-
0.270800 0.742700 0.853050 O2-
0.729200 0.242700 0.646950 O2-
0.729200 0.257300 0.146950 O2-
0.270800 0.757300 0.353050 O2-
0.427700 0.391800 0.517340 O2-
0.572300 0.891800 0.982660 O2-
0.572300 0.608200 0.482660 O2-
0.427700 0.108200 0.017340 O2-
0.441500 0.383800 0.176030 O2-
0.558500 0.883800 0.323970 O2-
0.558500 0.616200 0.823970 O2-
0.441500 0.116200 0.676030 O2-
0.401400 0.366900 0.844570 O2-
0.598600 0.866900 0.655430 O2-
0.598600 0.633100 0.155430 O2-
0.401400 0.133100 0.344570 O2-
0.138600 0.998500 0.481520 O2-
0.861400 0.498500 0.018480 O2-
0.861400 0.001500 0.518480 O2-
0.138600 0.501500 0.981520 O2-
0.167000 0.984800 0.142210 O2-
0.833000 0.484800 0.357790 O2-
0.833000 0.015200 0.857790 O2-
0.167000 0.515200 0.642210 O2-
0.174800 0.942200 0.786560 O2-
0.825200 0.442200 0.713440 O2-
0.825200 0.057800 0.213440 O2-
0.174800 0.557800 0.286560 O2-
0.385300 0.330800 0.607130 O2-
0.614700 0.830800 0.892870 O2-
0.614700 0.669200 0.392870 O2-
0.385300 0.169200 0.107130 O2-
0.383700 0.318700 0.263280 O2-
0.616300 0.818700 0.236720 O2-
0.616300 0.681300 0.736720 O2-
0.383700 0.181300 0.763280 O2-
0.389500 0.314900 0.942690 O2-
0.610500 0.814900 0.557310 O2-
0.610500 0.685100 0.057310 O2-
0.389500 0.185100 0.442690 O2-
0.942300 0.796000 0.459260 O2-
0.057700 0.296000 0.040740 O2-
0.057700 0.204000 0.540740 O2-
0.942300 0.704000 0.959260 O2-
0.947200 0.802300 0.125220 O2-
0.052800 0.302300 0.374780 O2-
0.052800 0.197700 0.874780 O2-
0.947200 0.697700 0.625220 O2-
0.957100 0.792200 0.795130 O2-
0.042900 0.292200 0.704870 O2-
0.042900 0.207800 0.204870 O2-
0.957100 0.707800 0.295130 O2-
