Ca4 Mn4 P6 O24
1.0
2.647620 7.567280 4.337712
-0.029399 0.132208 8.621899
7.680488 0.195018 4.185412
Ca Mn P O
4 4 6 24
direct
0.242803 0.885599 0.606916 Ca
0.908919 0.992834 0.074037 Ca
0.377825 0.750690 0.103092 Ca
0.144923 0.395760 0.749321 Ca
0.634444 0.646181 0.634561 Mn
0.150426 0.155644 0.167175 Mn
0.840702 0.859113 0.833948 Mn
0.393876 0.333258 0.337626 Mn
0.245719 0.555761 0.957111 P
0.031761 0.765214 0.446391 P
0.952843 0.243999 0.585714 P
0.448793 0.038801 0.739607 P
0.556516 0.919048 0.245079 P
0.747366 0.477913 0.000452 P
0.561158 0.756165 0.424781 O
0.269761 0.069888 0.907842 O
0.389628 0.574443 0.762645 O
0.891541 0.288413 0.995458 O
0.792652 0.418241 0.579309 O
0.071932 0.918361 0.256916 O
0.898519 0.078863 0.766264 O
0.602408 0.480748 0.190227 O
0.727729 0.862713 0.086062 O
0.203573 0.593528 0.429938 O
0.099162 0.751777 0.937720 O
0.440161 0.223600 0.585371 O
0.176857 0.404919 -0.002526 O
0.862070 0.741467 0.488060 O
1.029153 0.173138 0.423316 O
0.453361 0.888062 0.687205 O
0.385398 0.948941 0.226331 O
0.642344 0.555095 0.871988 O
0.306089 0.512587 0.111556 O
0.020448 0.814423 0.603499 O
0.111144 0.254151 0.596538 O
0.600576 -0.043131 0.810244 O
0.556573 0.091709 0.254106 O
0.859223 0.605985 0.919559 O
