Fe8 Si4 O16                             
   1.00000000000000     
     4.8251766884903162    0.0000002261458378    0.0000001602901878
     0.0000002769213630   10.4573847579817567   -0.0000009229442642
     0.0000001661569012   -0.0000004180863542    6.0885330427550457
   Fe   Si   O 
     8     4    16
Direct
  0.4999241856573633  0.5000165258275047  0.9998523335921519
  0.9999238656807208  0.9999834388670692  0.4998518114579866
  0.4999239701037297  0.5000165480892562  0.5001480721825686
  0.9999240099815410  0.9999834587096075  0.0001478588565291
  0.5138791432774923  0.7791363347907847  0.2499999153184618
  0.9861545469805151  0.2791881054763721  0.2499999430614324
  0.4861545414004311  0.2208119033523843  0.7500000272699623
  0.0138792104487138  0.7208637025058238  0.7500000956575832
  0.0688390361579962  0.5971914002704608  0.2500000747077920
  0.4311579317066787  0.0972031076445745  0.2499999945936437
  0.9311579242875254  0.4027969004560390  0.7499999785583213
  0.5688391101390735  0.9028085765950493  0.7499999360273932
  0.7320417882106938  0.5909366778641783  0.2500000008678640
  0.7679246625888752  0.0909362580696040  0.2499999673036086
  0.2679247185495299  0.4090637458754145  0.7500000455529232
  0.2320417321836956  0.9090633418790617  0.7499999877798800
  0.2908758772411915  0.9530695413657497  0.2499999885387538
  0.2091012528898233  0.4530668688994055  0.2500000209449880
  0.7091011971636902  0.0469331211748170  0.7499999563144115
  0.7908758664327920  0.5469304550113208  0.7500000144976298
  0.2095720430129049  0.6662896815317865  0.0363672278089169
  0.2905168692887585  0.1662734411494924  0.4636597898843036
  0.7905169327660246  0.3337265727595167  0.5363401655495892
  0.7095720510730530  0.8337103370011292  0.9636328021786866
  0.7905168949877108  0.3337265670994753  0.9636597376932272
  0.7095719021217235  0.8337103448438441  0.5363669858152704
  0.2095718641286624  0.6662896333110808  0.4636330764019760
  0.2905168715390900  0.1662734095792118  0.0363401915841308
 
  0.00000000E+00  0.00000000E+00  0.00000000E+00
  0.00000000E+00  0.00000000E+00  0.00000000E+00
  0.00000000E+00  0.00000000E+00  0.00000000E+00
  0.00000000E+00  0.00000000E+00  0.00000000E+00
  0.00000000E+00  0.00000000E+00  0.00000000E+00
  0.00000000E+00  0.00000000E+00  0.00000000E+00
  0.00000000E+00  0.00000000E+00  0.00000000E+00
  0.00000000E+00  0.00000000E+00  0.00000000E+00
  0.00000000E+00  0.00000000E+00  0.00000000E+00
  0.00000000E+00  0.00000000E+00  0.00000000E+00
  0.00000000E+00  0.00000000E+00  0.00000000E+00
  0.00000000E+00  0.00000000E+00  0.00000000E+00
  0.00000000E+00  0.00000000E+00  0.00000000E+00
  0.00000000E+00  0.00000000E+00  0.00000000E+00
  0.00000000E+00  0.00000000E+00  0.00000000E+00
  0.00000000E+00  0.00000000E+00  0.00000000E+00
  0.00000000E+00  0.00000000E+00  0.00000000E+00
  0.00000000E+00  0.00000000E+00  0.00000000E+00
  0.00000000E+00  0.00000000E+00  0.00000000E+00
  0.00000000E+00  0.00000000E+00  0.00000000E+00
  0.00000000E+00  0.00000000E+00  0.00000000E+00
  0.00000000E+00  0.00000000E+00  0.00000000E+00
  0.00000000E+00  0.00000000E+00  0.00000000E+00
  0.00000000E+00  0.00000000E+00  0.00000000E+00
  0.00000000E+00  0.00000000E+00  0.00000000E+00
  0.00000000E+00  0.00000000E+00  0.00000000E+00
  0.00000000E+00  0.00000000E+00  0.00000000E+00
  0.00000000E+00  0.00000000E+00  0.00000000E+00
