Ni2 S2 O8                               
   1.00000000000000     
    -2.5737961951316204   -3.9044417695604583    0.0000084746734705
    -2.5737962993584285    3.9044417785477576   -0.0000081000721828
     0.0000004547034128    0.0000133074756436   -6.2591563217938546
   Ni   S    O 
     2     2     8
Direct
  0.0008345696552752  0.0008340319101521  0.4999997639687024
  0.0008340583498381  0.0008346359773626  0.9999997357862327
  0.6471387229218521  0.3528041579138019  0.7500027589748726
  0.3528041598220213  0.6471387134984710  0.2499971785503163
  0.7472013551665100  0.2522153216801186  0.5558204704838445
  0.2522159811031273  0.7472006863883607  0.4441800548342485
  0.7471994595073568  0.2522172137315906  0.9441775200142999
  0.2522165686065065  0.7472001095148286  0.0558229783917952
  0.7684824647121502  0.7013019916413015  0.7499996825498982
  0.7013020093467190  0.7684824767058416  0.2500000816165766
  0.2312987753797699  0.2984718747182598  0.2500000902132840
  0.2984718754288664  0.2312987863199112  0.7499996846159291
 
  0.00000000E+00  0.00000000E+00  0.00000000E+00
  0.00000000E+00  0.00000000E+00  0.00000000E+00
  0.00000000E+00  0.00000000E+00  0.00000000E+00
  0.00000000E+00  0.00000000E+00  0.00000000E+00
  0.00000000E+00  0.00000000E+00  0.00000000E+00
  0.00000000E+00  0.00000000E+00  0.00000000E+00
  0.00000000E+00  0.00000000E+00  0.00000000E+00
  0.00000000E+00  0.00000000E+00  0.00000000E+00
  0.00000000E+00  0.00000000E+00  0.00000000E+00
  0.00000000E+00  0.00000000E+00  0.00000000E+00
  0.00000000E+00  0.00000000E+00  0.00000000E+00
  0.00000000E+00  0.00000000E+00  0.00000000E+00
