Ca2 Co4 S6 O24                          
   1.00000000000000     
     7.6528559999999999    0.0544060000000000    4.4551610000000004
     2.6837510000000000    7.0090380000000003    4.5434919999999996
     0.2394890000000000   -0.0124870000000000    8.8357930000000007
   Ca   Co   S    O 
     2     4     6    24
Direct
  0.3143465363298950  0.7073916519247548  0.5483512730536557
  0.9749584922690512  0.0461343362928684  0.9776325796518334
  0.6619931188575958  0.6241330483228517  0.6634868420163480
  0.1547908654169806  0.1416806608401768  0.1410910565536551
  0.8269703505236522  0.8646246192222456  0.8495767013557878
  0.3488437020154923  0.3572984586394196  0.3511062817887131
  0.9605873106836714  0.2485662479461798  0.5422814964380862
  0.4522858661310841  0.0360406066339616  0.7548530372178972
  0.5451645450710264  0.9620643618824828  0.2464954425375967
  0.7502474296821423  0.4460932600110327  0.0431140412044095
  0.2455448469996849  0.5470054879283910  0.9606789678669039
  0.0343550083783871  0.7544211414887171  0.4388889274438613
  0.4308585303459296  0.5320069082386861  0.8009383931354844
  0.8868527659782270  0.2602492042115636  0.1220941727038518
  0.7948724237841006  0.4234710334583323  0.5290065920730992
  0.0787606832603486  0.8981552665399140  0.2484901727123157
  0.5403014430485440  0.8299572575787727  0.4418435156570130
  0.2534311919811321  0.0977197014698794  0.8885748164800633
  0.7363725717565820  0.8994944368399596  0.1100080115739364
  0.2107152268647110  0.5842670654897972  0.4535045627647071
  0.1116746576695447  0.7378735453078918  0.8765220292140804
  0.4648168266696077  0.1742694295723824  0.5645957641831005
  0.9073096742928294  0.0985317326993602  0.7310469550068703
  0.5635324850480902  0.4755230272607583  0.1892686429363104
  0.0293342950509314  0.1754544825318254  0.3951568965451149
  0.4952880796304155  0.8433259816458054  0.7705611198487109
  0.4006849819394114  0.9455071702638131  0.2229887131842788
  0.7555427721072653  0.4204962783807890  0.8858978366832886
  0.1905782933359166  0.3958256808460799  0.0035523877722029
  0.8843070327353296  0.7095551612854285  0.4692133623810836
  0.1124840945673933  0.2754805857289954  0.5405265266801694
  0.5779580582211085  0.0328729770320219  0.8180362606887187
  0.5013689758260361  0.1566880503483688  0.2214853299055462
  0.8131568225859543  0.6020904676742583  0.9713999127958521
  0.2484643048977137  0.5487709223758998  0.1218331534844187
  0.9884766628333630  0.8274615464731695  0.5808885786260454
 
             NaN             NaN             NaN
             NaN             NaN             NaN
             NaN             NaN             NaN
             NaN             NaN             NaN
             NaN             NaN             NaN
             NaN             NaN             NaN
             NaN             NaN             NaN
             NaN             NaN             NaN
             NaN             NaN             NaN
             NaN             NaN             NaN
             NaN             NaN             NaN
             NaN             NaN             NaN
             NaN             NaN             NaN
             NaN             NaN             NaN
             NaN             NaN             NaN
             NaN             NaN             NaN
             NaN             NaN             NaN
             NaN             NaN             NaN
             NaN             NaN             NaN
             NaN             NaN             NaN
             NaN             NaN             NaN
             NaN             NaN             NaN
             NaN             NaN             NaN
             NaN             NaN             NaN
             NaN             NaN             NaN
             NaN             NaN             NaN
             NaN             NaN             NaN
             NaN             NaN             NaN
             NaN             NaN             NaN
             NaN             NaN             NaN
             NaN             NaN             NaN
             NaN             NaN             NaN
             NaN             NaN             NaN
             NaN             NaN             NaN
             NaN             NaN             NaN
             NaN             NaN             NaN
