Ca2 Co4 S6 O24                          
   1.00000000000000     
     7.6528559999999999    0.0544060000000000    4.4551610000000004
     2.6837510000000000    7.0090380000000003    4.5434919999999996
     0.2394890000000000   -0.0124870000000000    8.8357930000000007
   Ca   Co   S    O 
     2     4     6    24
Direct
  0.2907050456744473  0.7409223416463246  0.5539305250870453
  0.9808095266918833  0.0272564624100805  0.9859950923566471
  0.6597270688600727  0.6239011694830499  0.6607665973847323
  0.1496918096117078  0.1447704047345550  0.1394527404398005
  0.8269239580712128  0.8593500231602714  0.8533449111958264
  0.3540943438364398  0.3623629696460213  0.3520982660853736
  0.9654048764992134  0.2452792870317925  0.5388942409020476
  0.4487520464446639  0.0385093345253584  0.7536986138084941
  0.5502561155878819  0.9614982722548231  0.2480336120483833
  0.7494973252570849  0.4460928010350728  0.0416531171114533
  0.2457171449134124  0.5448360683688808  0.9614711313564619
  0.0332701733819529  0.7547067830160613  0.4399544297655859
  0.4239703640336548  0.5382234886777542  0.7939600655261368
  0.8854436620772888  0.2556829633153030  0.1147310197369144
  0.7962799719121546  0.4163057282500499  0.5390627210989315
  0.0813774608070319  0.8977158338064641  0.2495776722470189
  0.5510456547447564  0.8135134828565048  0.4365210291738985
  0.2502537181223811  0.0973339260222006  0.8893718409838123
  0.7358105358576964  0.9004463519952560  0.1047067090236634
  0.2117788635122049  0.5890141023761759  0.4575053565902254
  0.1044323200740398  0.7353630647816501  0.8870889117256955
  0.4648615722395046  0.1871866415766041  0.5683266766025904
  0.9246728778079044  0.0883846990412198  0.7263849228343117
  0.5651674640082144  0.4783678831350137  0.1902807696404601
  1.0178626639253512  0.1778124546413343  0.3929210970426075
  0.4837705365998311  0.8556243082275902  0.7527409238493180
  0.3942694273218345  0.9657867073421247  0.2245628864843702
  0.7427908061405262  0.4318490644015362  0.8850891708753861
  0.1923654922227380  0.3924784939988999  1.0061037606239629
  0.8891543258397872  0.7056333477507152  0.4640979036040006
  0.1253675218552762  0.2703372005454759  0.5227776792473149
  0.5751884391998708  1.0165370660376190  0.8283448258715351
  0.5236488356758444  0.1446164218036612  0.2366238409650343
  0.8202534136434161  0.5953869399219908  0.9735438528976537
  0.2569672304865413  0.5447517078969079  0.1189490054374363
 -0.0244828226645909  0.8328768892355868  0.5824741330879073
 
             NaN             NaN             NaN
             NaN             NaN             NaN
             NaN             NaN             NaN
             NaN             NaN             NaN
             NaN             NaN             NaN
             NaN             NaN             NaN
             NaN             NaN             NaN
             NaN             NaN             NaN
             NaN             NaN             NaN
             NaN             NaN             NaN
             NaN             NaN             NaN
             NaN             NaN             NaN
             NaN             NaN             NaN
             NaN             NaN             NaN
             NaN             NaN             NaN
             NaN             NaN             NaN
             NaN             NaN             NaN
             NaN             NaN             NaN
             NaN             NaN             NaN
             NaN             NaN             NaN
             NaN             NaN             NaN
             NaN             NaN             NaN
             NaN             NaN             NaN
             NaN             NaN             NaN
             NaN             NaN             NaN
             NaN             NaN             NaN
             NaN             NaN             NaN
             NaN             NaN             NaN
             NaN             NaN             NaN
             NaN             NaN             NaN
             NaN             NaN             NaN
             NaN             NaN             NaN
             NaN             NaN             NaN
             NaN             NaN             NaN
             NaN             NaN             NaN
             NaN             NaN             NaN
