Ca2 Cr4 S6 O24                          
   1.00000000000000     
     7.4528169999999996   -0.0413960000000000    4.5729720000000000
     2.3650250000000002    7.0693799999999998    4.5654349999999999
    -0.0296090000000000   -0.0524720000000000    9.3084969999999991
   Ca   Cr   S    O 
     2     4     6    24
Direct
  0.3424143321764365  0.6545923068323607  0.5551166771690538
  0.9752258864736663  1.0459009726909476 -0.0206409772025974
  0.6645605419956845  0.6177398738541984  0.6715208148170957
  0.1493321457801021  0.1393297294093583  0.1586474746729233
  0.8390887146918689  0.8577518796720113  0.8405857956945051
  0.3457806913929014  0.3624067639669414  0.3505090572538924
  0.9502606868063284  0.2517635652804331  0.5575373929969443
  0.4617818908649454  0.0301084699469735  0.7506747037343944
  0.5292562651551543  0.9711739523736481  0.2514646448951417
  0.7566630015887291  0.4308315524592649  0.0449568474127149
  0.2376960743650250  0.5616780630385936  0.9518334548239354
  0.0472747430676190  0.7574221249065687  0.4261341505810721
  0.4264076315177386  0.5335374464318930  0.8044403409235135
  0.8994547179100042  0.2601211804581298  0.1182739032502949
  0.7764167201255979  0.4145941897523335  0.5677253178086890
  0.0729592672630662  0.9049525169246248  0.2469471190247977
  0.5286935315452193  0.8319981486934552  0.4315971812323278
  0.2645067150673966  0.0771232870063301  0.8761912672856536
  0.7187591315944698  0.9272786399056900  0.1175674996347211
  0.2259374315347777  0.5939205279013668  0.4195839594032093
  0.1117320898083867  0.7299756653135928  0.8516305011095187
  0.4794840834828376  0.1774294917225179  0.5748757842427321
  0.9150822484819907  0.0941929706439506  0.7356106550459593
  0.5756885180899470  0.4599344915486645  0.1905905860438791
  0.9994270827080461  0.1952990934183259  0.4149053549419505
  0.5114132615841969  0.8446822363608235  0.7460726897064066
  0.3896476656174203 -0.0468998333457794  0.2199008080274233
  0.7511099108723921  0.3854775696510342  0.9156874180248690
  0.1838010093615849  0.3969479223678132  1.0226372633761951
  0.8895994450823371  0.7046629689119205  0.4770232302194548
  0.1045867845818906  0.2936623161542388  0.5392789485395748
  0.5843219695724949  1.0163200122715428  0.8245758336420803
  0.4729522195679120  0.1623701815366335  0.2426402970784211
  0.8170207379679248  0.5961344483384031 -0.0455264149949021
  0.2348061436006665  0.6016888004630784  0.0849252840871980
  0.0280142075831896  0.8196965553157441  0.5557130439092969
 
             NaN             NaN             NaN
             NaN             NaN             NaN
             NaN             NaN             NaN
             NaN             NaN             NaN
             NaN             NaN             NaN
             NaN             NaN             NaN
             NaN             NaN             NaN
             NaN             NaN             NaN
             NaN             NaN             NaN
             NaN             NaN             NaN
             NaN             NaN             NaN
             NaN             NaN             NaN
             NaN             NaN             NaN
             NaN             NaN             NaN
             NaN             NaN             NaN
             NaN             NaN             NaN
             NaN             NaN             NaN
             NaN             NaN             NaN
             NaN             NaN             NaN
             NaN             NaN             NaN
             NaN             NaN             NaN
             NaN             NaN             NaN
             NaN             NaN             NaN
             NaN             NaN             NaN
             NaN             NaN             NaN
             NaN             NaN             NaN
             NaN             NaN             NaN
             NaN             NaN             NaN
             NaN             NaN             NaN
             NaN             NaN             NaN
             NaN             NaN             NaN
             NaN             NaN             NaN
             NaN             NaN             NaN
             NaN             NaN             NaN
             NaN             NaN             NaN
             NaN             NaN             NaN
