Ca2 Cr4 S6 O24
1.0
7.452817 -0.041396 4.572972
2.365025 7.069380 4.565435
-0.029609 -0.052472 9.308497
Ca Cr S O
2 4 6 24
direct
0.409200 0.644405 0.530619 Ca
0.998870 0.994960 1.004442 Ca
0.651080 0.635056 0.655310 Cr
0.138967 0.152918 0.150408 Cr
0.849702 0.841838 0.848072 Cr
0.343782 0.356166 0.351373 Cr
0.944667 0.247969 0.560422 S
0.461376 0.029718 0.742141 S
0.528098 0.966971 0.241574 S
0.749829 0.436127 0.051244 S
0.244085 0.559760 0.944363 S
0.056990 0.748995 0.441543 S
0.402442 0.571174 0.768637 O
0.905813 0.255258 0.086716 O
0.768191 0.407385 0.579651 O
0.072576 0.906349 0.264843 O
0.534008 0.781693 0.383712 O
0.274734 0.053628 0.884902 O
0.716502 0.959535 0.104732 O
0.231782 0.588502 0.416104 O
0.086090 0.741614 0.909978 O
0.465759 0.207189 0.592454 O
0.922535 0.086304 0.734590 O
0.585565 0.428191 0.219505 O
0.981945 0.195510 0.419224 O
0.490328 0.886455 0.682836 O
0.397527 0.017067 0.160921 O
0.712566 0.449136 0.910398 O
0.185290 0.404391 0.997102 O
0.893898 0.701114 0.493510 O
0.100131 0.294274 0.530487 O
0.606181 0.965632 0.812076 O
0.465944 0.105117 0.320655 O
0.808308 0.590457 0.004481 O
0.289688 0.551710 0.076798 O
0.043466 0.801890 0.573315 O
