Ca2 Fe2 Si4 O12                         
   1.00000000000000     
     0.0225748429189179   -0.0000012250442333    5.2492222684786869
    -4.7457464526057995    4.5088406332118414    1.2607058197035876
    -4.7457484335818449   -4.5088430988766630    1.2607078026305563
   Ca   Fe   Si   O 
     2     2     4    12
Direct
  0.7500928179922752  0.6991684548170554  0.3008997182318183
  0.2500930829151287  0.3008996467047993  0.6991686884199311
  0.7499181882322503  0.0902783694941078  0.9097630328886126
  0.2499183128712161  0.9097630923788600  0.0902783881690112
  0.7338124711099212  0.6190037898393612  0.8048356935080179
  0.7661851232413497  0.1951704166146726  0.3809675122689455
  0.2661851871231562  0.3809672894153238  0.1951707377678176
  0.2338125553233965  0.8048361983759165  0.6190036668228700
  0.6537747915423893  0.7896033173096768  0.9713513537755958
  0.8463524206911330  0.0285391256526353  0.2104921071781263
  0.3463521589499123  0.2104920128714980  0.0285393372646041
  0.1537745992613111  0.9713514990534406  0.7896037659058024
  0.8232024665188433  0.3894975540386767  0.8830494805233471
  0.6766301622960427  0.1169087059296530  0.6104104526113119
  0.1766303669743792  0.6104105007372169  0.1169090760293656
  0.3232031667393258  0.8830506272178411  0.3894979162678069
  0.4947331751244946  0.6308575716271108  0.6686269276636452
  0.0052976975165322  0.3313377172068002  0.3692370943632142
  0.5052978859460495  0.3692370380571219  0.3313376680182500
  0.9947333696308789  0.6686270726582180  0.6308573823219135
 
  0.00000000E+00  0.00000000E+00  0.00000000E+00
  0.00000000E+00  0.00000000E+00  0.00000000E+00
  0.00000000E+00  0.00000000E+00  0.00000000E+00
  0.00000000E+00  0.00000000E+00  0.00000000E+00
  0.00000000E+00  0.00000000E+00  0.00000000E+00
  0.00000000E+00  0.00000000E+00  0.00000000E+00
  0.00000000E+00  0.00000000E+00  0.00000000E+00
  0.00000000E+00  0.00000000E+00  0.00000000E+00
  0.00000000E+00  0.00000000E+00  0.00000000E+00
  0.00000000E+00  0.00000000E+00  0.00000000E+00
  0.00000000E+00  0.00000000E+00  0.00000000E+00
  0.00000000E+00  0.00000000E+00  0.00000000E+00
  0.00000000E+00  0.00000000E+00  0.00000000E+00
  0.00000000E+00  0.00000000E+00  0.00000000E+00
  0.00000000E+00  0.00000000E+00  0.00000000E+00
  0.00000000E+00  0.00000000E+00  0.00000000E+00
  0.00000000E+00  0.00000000E+00  0.00000000E+00
  0.00000000E+00  0.00000000E+00  0.00000000E+00
  0.00000000E+00  0.00000000E+00  0.00000000E+00
  0.00000000E+00  0.00000000E+00  0.00000000E+00
