Silicon                                 
   1.00000000000000     
     5.4680925540401741    0.0000003891831805   -0.0000001393886666
     0.0000003889854668    5.4680925183391071    0.0000002143962691
    -0.0000001393997957    0.0000002141002277    5.4680926475672598
   Si
     8
Direct
  0.0000000018495890  0.0000000034378762 -0.0000000073076626
 -0.0000000057145314  0.4999999954966733  0.4999999940987094
  0.4999999959277356  0.5000000096001791 -0.0000000018362151
  0.5000000002351092 -0.0000000075820137  0.4999999910148745
  0.7500000081207512  0.2499999988119701  0.7500000020182135
  0.2500000008604761  0.2499999990283736  0.2500000042906813
  0.2500000077210934  0.7500000029198751  0.7500000075188359
  0.7499999909997770  0.7499999982870662  0.2500000102025630
 
  0.00000000E+00  0.00000000E+00  0.00000000E+00
  0.00000000E+00  0.00000000E+00  0.00000000E+00
  0.00000000E+00  0.00000000E+00  0.00000000E+00
  0.00000000E+00  0.00000000E+00  0.00000000E+00
  0.00000000E+00  0.00000000E+00  0.00000000E+00
  0.00000000E+00  0.00000000E+00  0.00000000E+00
  0.00000000E+00  0.00000000E+00  0.00000000E+00
  0.00000000E+00  0.00000000E+00  0.00000000E+00
