Cr4 P4
1.0
5.362000 0.000000 0.000000
0.000000 3.113000 0.000000
0.000000 0.000000 6.018000
Cr P
4 4
direct
0.507300 0.250000 0.307100 Cr3+
0.007300 0.250000 0.192900 Cr3+
0.492700 0.750000 0.692900 Cr3+
0.992700 0.750000 0.807100 Cr3+
0.685300 0.250000 0.934700 P3-
0.185300 0.250000 0.565300 P3-
0.314700 0.750000 0.065300 P3-
0.814700 0.750000 0.434700 P3-
