Ca2 Fe6 P6 O26                          
   1.00000000000000     
     7.4230305869597366    0.0000000273424328   -1.3046725116392823
     0.0000000041722539    6.3257025630822614   -0.0000001217827192
     0.0056710793850503   -0.0000001921208345   10.1519418296102373
   Ca   Fe   P    O 
     2     6     6    26
Direct
  0.6610806480935025  0.7500000091255217  0.1960046486786311
  0.3389213172796062  0.2499999906509487  0.8039977077901241
  0.9999942259772610  0.0000029625443005  0.9999981485184719
  0.9999942270443825  0.4999970385258976  0.9999981485452025
  0.3531165297661758  0.2499999977903400  0.2021626644575889
  0.6468731215352364  0.7500000027094416  0.7978376491044443
  0.7849128974502477  0.2500000108997824  0.4360077469149886
  0.2150857299943567  0.7499999891107691  0.5639895896666616
  0.6825981335148228  0.2500000011198864  0.1118104214584079
  0.3174054396489581  0.7499999994200834  0.8881956933667254
  0.2635113362668449  0.7499999952336012  0.2388467968932488
  0.7364861765369213  0.2500000052152842  0.7611490587763612
  0.2170127092403789  0.2500000037898360  0.4890048761101724
  0.7829876461148260  0.7499999960997314  0.5109953518226078
  0.4923125272011646  0.2500000082728491  0.0309995291369916
  0.5076945048941326  0.7499999925199319  0.9690055949581193
  0.6397853500668091  0.2499999694695987  0.2556743041517677
  0.3602286538427037  0.7500000304017433  0.7443344094909534
  0.7886956369623661  0.0490860610499340  0.0934850244586727
  0.2113054998843111  0.5490857169927779  0.9065161974330920
  0.2113055235906600  0.9509142724388937  0.9065162651711489
  0.7886956619691361  0.4509139481646756  0.0934850919210675
  0.0864486337489083  0.7500000043916728  0.1333444194211566
  0.9135501709381728  0.2499999961637229  0.8666508646417554
  0.2125700060905160  0.7499999776135837  0.3763981647783297
  0.7874253658824344  0.2500000229830448  0.6235956367767628
  0.3790949719153858  0.9386438583379970  0.2132107023259167
  0.6209082490010260  0.4386459415802051  0.7867878882348549
  0.6209082390177230  0.0613540588838077  0.7867878434554001
  0.3790949617537294  0.5613561417772814  0.2132106589480784
  0.0253678933528079  0.2500000122973844  0.4091832539065123
  0.9746326464259525  0.7499999874821910  0.5908138163348866
  0.3504813371706064  0.2500000256273864  0.3937032823062552
  0.6495183122465136  0.7499999718945034  0.6062975815241529
  0.7518875177967175  0.5601900509877709  0.4143533448088235
  0.2481123754594776  0.0601909458992651  0.5856480363274486
  0.2481123726749388  0.4398090313065097  0.5856480773104877
  0.7518875147461301  0.9398099711486410  0.4143533860385986
  0.1218006723419123  0.2500000073706161  0.0933007067260192
  0.8781952625622509  0.7499999927085739  0.9066974173090898
 
  0.00000000E+00  0.00000000E+00  0.00000000E+00
  0.00000000E+00  0.00000000E+00  0.00000000E+00
  0.00000000E+00  0.00000000E+00  0.00000000E+00
  0.00000000E+00  0.00000000E+00  0.00000000E+00
  0.00000000E+00  0.00000000E+00  0.00000000E+00
  0.00000000E+00  0.00000000E+00  0.00000000E+00
  0.00000000E+00  0.00000000E+00  0.00000000E+00
  0.00000000E+00  0.00000000E+00  0.00000000E+00
  0.00000000E+00  0.00000000E+00  0.00000000E+00
  0.00000000E+00  0.00000000E+00  0.00000000E+00
  0.00000000E+00  0.00000000E+00  0.00000000E+00
  0.00000000E+00  0.00000000E+00  0.00000000E+00
  0.00000000E+00  0.00000000E+00  0.00000000E+00
  0.00000000E+00  0.00000000E+00  0.00000000E+00
  0.00000000E+00  0.00000000E+00  0.00000000E+00
  0.00000000E+00  0.00000000E+00  0.00000000E+00
  0.00000000E+00  0.00000000E+00  0.00000000E+00
  0.00000000E+00  0.00000000E+00  0.00000000E+00
  0.00000000E+00  0.00000000E+00  0.00000000E+00
  0.00000000E+00  0.00000000E+00  0.00000000E+00
  0.00000000E+00  0.00000000E+00  0.00000000E+00
  0.00000000E+00  0.00000000E+00  0.00000000E+00
  0.00000000E+00  0.00000000E+00  0.00000000E+00
  0.00000000E+00  0.00000000E+00  0.00000000E+00
  0.00000000E+00  0.00000000E+00  0.00000000E+00
  0.00000000E+00  0.00000000E+00  0.00000000E+00
  0.00000000E+00  0.00000000E+00  0.00000000E+00
  0.00000000E+00  0.00000000E+00  0.00000000E+00
  0.00000000E+00  0.00000000E+00  0.00000000E+00
  0.00000000E+00  0.00000000E+00  0.00000000E+00
  0.00000000E+00  0.00000000E+00  0.00000000E+00
  0.00000000E+00  0.00000000E+00  0.00000000E+00
  0.00000000E+00  0.00000000E+00  0.00000000E+00
  0.00000000E+00  0.00000000E+00  0.00000000E+00
  0.00000000E+00  0.00000000E+00  0.00000000E+00
  0.00000000E+00  0.00000000E+00  0.00000000E+00
  0.00000000E+00  0.00000000E+00  0.00000000E+00
  0.00000000E+00  0.00000000E+00  0.00000000E+00
  0.00000000E+00  0.00000000E+00  0.00000000E+00
  0.00000000E+00  0.00000000E+00  0.00000000E+00
