Ca2 Mn4 S6 O24                          
   1.00000000000000     
     7.7255136134052504    0.0988148910606556    4.5128885549559774
     2.6370695111557132    7.2621925618302319    4.5128841919725238
     0.1391089660010193    0.0988168887305966    8.9459701846133690
   Ca   Mn   S    O 
     2     4     6    24
Direct
  0.4974708499166667  0.4974695359569736  0.4974697164343596
  0.9974691233862885  0.9974711347029910  0.9974694076257578
  0.6480639089063658  0.6480675525155419  0.6480649510612153
  0.1480646647978361  0.1480650686991325  0.1480663470002739
  0.8465277992995581  0.8465277568012866  0.8465294462107593
  0.3465296352807670  0.3465275660182954  0.3465282208522424
  0.9448342261068348  0.2474838515214302  0.5504676075057304
  0.4448337172328252  0.0504661599069038  0.7474837639872547
  0.5504658689399946  0.9448340729232854  0.2474828366312565
  0.7474832862314642  0.4448350422105207  0.0504681912843310
  0.2474834667734953  0.5504667414736772  0.9448321830137658
  0.0504686177077431  0.7474827434021520  0.4448307593752148
  0.4022239723686667  0.5679058528775442  0.7639966013649229
  0.9022233462052185  0.2639954976908570  0.0679069642200858
  0.7640006241452468  0.4022215208480375  0.5679045721961486
  0.0679066417890866  0.9022188469937120  0.2640007599127117
  0.5679054888678010  0.7639991389162262  0.4022214391364614
  0.2639984813864373  0.0679061774227847  0.9022224982679390
  0.7312036559028172  0.9270227454301150  0.0927433223264984
  0.2312040889277966  0.5927508473483769  0.4270170418894921
  0.0927461649052432  0.7312059119295142  0.9270186784732672
  0.4270218287402372  0.2312038733426647  0.5927456800073330
  0.9270194986255831  0.0927458250975519  0.7312061648955392
  0.5927424233809262  0.4270172348526700  0.2312145811919066
  0.9834152623436694  0.1906458528522919  0.4048535640439113
  0.4834102573718440  0.9048525262856870  0.6906491615983299
  0.4048511430220501  0.9834112080759780  0.1906482414099031
  0.6906432405435439  0.4834172119101083  0.9048514039965525
  0.1906490852858198  0.4048525961553366  0.9834071052514162
  0.9048564459715109  0.6906509092411639  0.4834044750026152
  0.0899290355197806  0.3045503327653662  0.5128661349976227
  0.5899268830919056  0.0128618359221662  0.8045539832202167
  0.5128613527686454  0.0899253367856687  0.3045546848627652
  0.8045503273769725  0.5899330590904199  0.0128661605195290
  0.3045528909595490  0.5128604339653577  0.0899277979824475
  0.0128626959198286  0.8045479980682444  0.5899255522502429
 
  0.00000000E+00  0.00000000E+00  0.00000000E+00
  0.00000000E+00  0.00000000E+00  0.00000000E+00
  0.00000000E+00  0.00000000E+00  0.00000000E+00
  0.00000000E+00  0.00000000E+00  0.00000000E+00
  0.00000000E+00  0.00000000E+00  0.00000000E+00
  0.00000000E+00  0.00000000E+00  0.00000000E+00
  0.00000000E+00  0.00000000E+00  0.00000000E+00
  0.00000000E+00  0.00000000E+00  0.00000000E+00
  0.00000000E+00  0.00000000E+00  0.00000000E+00
  0.00000000E+00  0.00000000E+00  0.00000000E+00
  0.00000000E+00  0.00000000E+00  0.00000000E+00
  0.00000000E+00  0.00000000E+00  0.00000000E+00
  0.00000000E+00  0.00000000E+00  0.00000000E+00
  0.00000000E+00  0.00000000E+00  0.00000000E+00
  0.00000000E+00  0.00000000E+00  0.00000000E+00
  0.00000000E+00  0.00000000E+00  0.00000000E+00
  0.00000000E+00  0.00000000E+00  0.00000000E+00
  0.00000000E+00  0.00000000E+00  0.00000000E+00
  0.00000000E+00  0.00000000E+00  0.00000000E+00
  0.00000000E+00  0.00000000E+00  0.00000000E+00
  0.00000000E+00  0.00000000E+00  0.00000000E+00
  0.00000000E+00  0.00000000E+00  0.00000000E+00
  0.00000000E+00  0.00000000E+00  0.00000000E+00
  0.00000000E+00  0.00000000E+00  0.00000000E+00
  0.00000000E+00  0.00000000E+00  0.00000000E+00
  0.00000000E+00  0.00000000E+00  0.00000000E+00
  0.00000000E+00  0.00000000E+00  0.00000000E+00
  0.00000000E+00  0.00000000E+00  0.00000000E+00
  0.00000000E+00  0.00000000E+00  0.00000000E+00
  0.00000000E+00  0.00000000E+00  0.00000000E+00
  0.00000000E+00  0.00000000E+00  0.00000000E+00
  0.00000000E+00  0.00000000E+00  0.00000000E+00
  0.00000000E+00  0.00000000E+00  0.00000000E+00
  0.00000000E+00  0.00000000E+00  0.00000000E+00
  0.00000000E+00  0.00000000E+00  0.00000000E+00
  0.00000000E+00  0.00000000E+00  0.00000000E+00
