Cr4 Si2 O8                              
   1.00000000000000     
     2.8352003852257348   -0.0008349447534959    4.7973805494146866
     2.8351871439211718   -0.0008310744160419   -4.7973748499118392
    -2.8373499857781881    5.5322173071724601   -0.0000098252897804
   Cr   Si   O 
     4     2     8
Direct
  0.2573362625229407  0.2425742412193017  0.7499276655059646
  0.9947889312535025  0.5049998581014705  0.7501282712786974
  0.7425502027848907  0.7573588330448331  0.2499274749839984
  0.0050330312725038  0.4947660154248581  0.2501241657854294
  0.6250848450913509  0.8749280584183552  0.7499676623397633
  0.3749251726120093  0.1250879010732504  0.2499706300791331
  0.2732401255084369  0.7345306070219735  0.5983756136838707
  0.6361764608229947  0.6751035938731249  0.9016534051558054
  0.8249030550433503  0.8640346788156776  0.5982073796581631
  0.7655400850767720  0.2267594247711031  0.9017397226199506
  0.7267544001956168  0.2655257305913779  0.4017369585009973
  0.3640308087439763  0.3249039943977010  0.0982029887882518
  0.1751032450566683  0.1361884149166244  0.4016577026144859
  0.2345333740150011  0.7732386483303415  0.0983803590054819
 
  0.00000000E+00  0.00000000E+00  0.00000000E+00
  0.00000000E+00  0.00000000E+00  0.00000000E+00
  0.00000000E+00  0.00000000E+00  0.00000000E+00
  0.00000000E+00  0.00000000E+00  0.00000000E+00
  0.00000000E+00  0.00000000E+00  0.00000000E+00
  0.00000000E+00  0.00000000E+00  0.00000000E+00
  0.00000000E+00  0.00000000E+00  0.00000000E+00
  0.00000000E+00  0.00000000E+00  0.00000000E+00
  0.00000000E+00  0.00000000E+00  0.00000000E+00
  0.00000000E+00  0.00000000E+00  0.00000000E+00
  0.00000000E+00  0.00000000E+00  0.00000000E+00
  0.00000000E+00  0.00000000E+00  0.00000000E+00
  0.00000000E+00  0.00000000E+00  0.00000000E+00
  0.00000000E+00  0.00000000E+00  0.00000000E+00
