Ca1 Fe4 S6 O24
1.0
7.540968 0.257252 4.652126
2.733884 7.021171 4.641975
0.386262 0.260701 8.855834
Ca Fe S O
1 4 6 24
direct
0.497620 0.497932 0.497157 Ca
0.646789 0.646437 0.647965 Fe
0.144717 0.145822 0.146891 Fe
0.849316 0.848491 0.848628 Fe
0.348187 0.348296 0.347619 Fe
0.949946 0.250719 0.534257 S
0.460114 0.043508 0.744499 S
0.534539 0.951607 0.250267 S
0.746222 0.459477 0.042518 S
0.248717 0.534952 0.952860 S
0.045232 0.743956 0.460177 S
0.381010 0.613740 0.752034 O
0.947588 0.324065 0.014468 O
0.749850 0.383404 0.615434 O
0.018857 0.945170 0.323969 O
0.613625 0.751688 0.383587 O
0.322548 0.017308 0.944350 O
0.672263 0.977139 0.050516 O
0.245634 0.612146 0.378218 O
0.047673 0.670905 0.979308 O
0.380968 0.243806 0.611566 O
0.975234 0.049819 0.670536 O
0.614810 0.379799 0.243518 O
0.961488 0.277146 0.348835 O
0.491031 0.899979 0.687298 O
0.348680 0.965196 0.275385 O
0.688910 0.487887 0.901001 O
0.275121 0.346660 0.969248 O
0.901224 0.688568 0.490439 O
0.094378 0.305294 0.504353 O
0.646024 0.029538 0.719617 O
0.503812 0.095876 0.306335 O
0.719702 0.647437 0.026983 O
0.304810 0.507618 0.094717 O
0.033866 0.717839 0.645250 O
