Ca1 V4 P6 O24
1.0
2.554553 7.006767 4.466312
0.214849 0.143504 8.712129
7.455434 0.112289 4.497627
Ca V P O
1 4 6 24
direct
0.344950 0.739104 0.560423 Ca
0.647286 0.641165 0.644375 V
0.134348 0.142956 0.142975 V
0.846423 0.850460 0.858649 V
0.356352 0.351604 0.354049 V
0.249633 0.527010 0.961942 P
0.034542 0.745901 0.467300 P
0.959460 0.252327 0.523657 P
0.458043 0.030857 0.747954 P
0.534864 0.968216 0.243544 P
0.746781 0.462046 0.040885 P
0.585022 0.776136 0.409829 O
0.302453 0.040665 0.938529 O
0.409586 0.572394 0.767719 O
0.933934 0.291211 0.033125 O
0.784243 0.420142 0.574178 O
0.053529 0.933480 0.296913 O
0.945993 0.063445 0.691279 O
0.583561 0.416164 0.226971 O
0.691965 0.963609 0.051756 O
0.211412 0.576686 0.417440 O
0.063716 0.703756 0.943930 O
0.423634 0.224844 0.584686 O
0.229993 0.347494 0.994679 O
0.855343 0.730631 0.500403 O
0.967839 0.255643 0.343059 O
0.467883 0.875783 0.706495 O
0.340968 -0.009319 0.259760 O
0.695462 0.515162 0.868559 O
0.291161 0.500392 0.123682 O
0.029004 0.745020 0.644797 O
0.142205 0.262091 0.496139 O
0.655309 0.976808 0.755691 O
0.511319 0.131230 0.283298 O
0.761939 0.634684 0.025599 O
