Ca1 Fe4 S6 O24                          
   1.00000000000000     
     7.5596790000000000    0.2200500000000000    4.6003400000000001
     2.6966260000000002    7.0568249999999999    4.6042300000000003
     0.3247510000000000    0.2335260000000000    8.8478429999999992
   Ca   Fe   S    O 
     1     4     6    24
Direct
  0.3772381237205016  0.6229464724212459  0.5179985331881265
  0.6559715355896590  0.6387201592282266  0.6539118937976582
  0.1453004235703712  0.1523004565135611  0.1404190700281260
  0.8405108492393273  0.8563082012212667  0.8473999529457088
  0.3496848697427541  0.3489380085273629  0.3586539645895381
  0.9638369571550733  0.2445283982060237  0.5325898701345717
  0.4544015641578643  0.0519334996517975  0.7482778708359207
  0.5412676375193880  0.9544603747705580  0.2515257284713649
  0.7366370727664487  0.4680412306811128  0.0512770602432439
  0.2499608405921354  0.5307926840479044  0.9621820206681564
  0.0278545932143223  0.7578020261421893  0.4439830282320153
  0.3955724039287029  0.6063173526716668  0.7747736785559530
  0.9348817960691715  0.3332312622056540  0.0277565420524496
  0.7712853450761286  0.3744288235369162  0.6138739116961656
  0.0017698964605140  0.9585095530147221  0.3178064733672857
  0.5992673863587755  0.7607178930845175  0.4004353971333847
  0.3080743602028244  0.0239789651382600  0.9446866181789590
  0.6903859378476964  0.9623268256764047  0.0621063827261919
  0.2297263750893592  0.6311982391815140  0.3665711096813553
  0.0602915946850975  0.6709834430997405  0.9547423421590471
  0.3771086168216832  0.2499061916709319  0.6163938172966896
  0.9859040098239724  0.0399333734501510  0.6556547057518475
  0.6010442646242478  0.3955912196995874  0.2461315175621890
  0.9900521659943821  0.2791681639111394  0.3380997925110402
  0.5015701716721543  0.9050234913934324  0.6850710166094591
  0.3589554800036070  0.9640985891660584  0.2674984294365464
  0.6853009132343097  0.4924245249259531  0.9057486454828952
  0.2835169659074021  0.3459971195487513  0.9670575409613839
  0.8954020293960686  0.6966737859606192  0.4616215212874425
  0.1126593463287716  0.2815017285870322  0.5216915006135209
  0.6284174617568686  0.0414810411644690  0.7432124232808054
  0.5085554516309440  0.1057731248587746  0.2975607162337120
  0.7149668247395908  0.6560405962683262  0.0288290816798293
  0.2781697469519273  0.5068298524783749  0.1210305527629136
  0.0102780304845635  0.7244584498865931  0.6367236590046679
 
             NaN             NaN             NaN
             NaN             NaN             NaN
             NaN             NaN             NaN
             NaN             NaN             NaN
             NaN             NaN             NaN
             NaN             NaN             NaN
             NaN             NaN             NaN
             NaN             NaN             NaN
             NaN             NaN             NaN
             NaN             NaN             NaN
             NaN             NaN             NaN
             NaN             NaN             NaN
             NaN             NaN             NaN
             NaN             NaN             NaN
             NaN             NaN             NaN
             NaN             NaN             NaN
             NaN             NaN             NaN
             NaN             NaN             NaN
             NaN             NaN             NaN
             NaN             NaN             NaN
             NaN             NaN             NaN
             NaN             NaN             NaN
             NaN             NaN             NaN
             NaN             NaN             NaN
             NaN             NaN             NaN
             NaN             NaN             NaN
             NaN             NaN             NaN
             NaN             NaN             NaN
             NaN             NaN             NaN
             NaN             NaN             NaN
             NaN             NaN             NaN
             NaN             NaN             NaN
             NaN             NaN             NaN
             NaN             NaN             NaN
             NaN             NaN             NaN
