Ca1 Fe4 S6 O24                          
   1.00000000000000     
     7.5596790000000000    0.2200500000000000    4.6003400000000001
     2.6966260000000002    7.0568249999999999    4.6042300000000003
     0.3247510000000000    0.2335260000000000    8.8478429999999992
   Ca   Fe   S    O 
     1     4     6    24
Direct
  0.3772557456075437  0.6229086707314041  0.5180103009786442
  0.6560264243901414  0.6386918868740757  0.6539022945427863
  0.1452235378184305  0.1523296772983572  0.1405930685143373
  0.8405000431990638  0.8563887112591919  0.8473876798461423
  0.3497399837986965  0.3488956607270817  0.3586025928110751
  0.9638233253680489  0.2445322466548272  0.5326113942241829
  0.4544129766657199  0.0519174163403886  0.7482704414124520
  0.5412710354432316  0.9544447718957888  0.2515295672016414
  0.7366299531041710  0.4680542945766496  0.0512587959420717
  0.2499617155845791  0.5308048159229400  0.9621655319971265
  0.0278470038081096  0.7577869651676787  0.4439968816517416
  0.3955662143111017  0.6063149561535978  0.7747799280233246
  0.9348791335883294  0.3332702727890022  0.0277234863155109
  0.7713057071871174  0.3744462362488587  0.6138508298906847
  0.0017587291820016  0.9585172787228173  0.3177731289778802
  0.5992619121839418  0.7607072902419851  0.4004470205804275
  0.3080812787782680  0.0239657735804901  0.9446482226920839
  0.6903864289945355  0.9622897160474874  0.0621438568129231
  0.2297149751508599  0.6311891875522269  0.3665677900718926
  0.0602807719213762  0.6709921552062373  0.9547107571576178
  0.3771180671581027  0.2499175108431317  0.6163811618622969
  0.9858629407665225  0.0399477968650705  0.6556987451619095
  0.6010306932843688  0.3955930434331852  0.2461192998870597
  0.9900984008549525  0.2791337853021980  0.3380655718584741
  0.5015927978149043  0.9050257531060196  0.6850724860983273
  0.3589401795959157  0.9640780073529363  0.2674832045382010
  0.6853246485717279  0.4924279043734546  0.9057230233575438
  0.2835418939556067  0.3459682170556127  0.9670531443420137
  0.8953929403805481  0.6966592356794208  0.4616459504939538
  0.1126413360005550  0.2815145305182526  0.5216993660594681
  0.6284503635729176  0.0414874904541980  0.7432234182799352
  0.5085151535917829  0.1057841906315510  0.2975852384329601
  0.7149544243643562  0.6560737463157501  0.0287980567380036
  0.2781713487146054  0.5068427724462928  0.1210331929554556
  0.0102585602153676  0.7244637693187528  0.6367410863684243
 
             NaN             NaN             NaN
             NaN             NaN             NaN
             NaN             NaN             NaN
             NaN             NaN             NaN
             NaN             NaN             NaN
             NaN             NaN             NaN
             NaN             NaN             NaN
             NaN             NaN             NaN
             NaN             NaN             NaN
             NaN             NaN             NaN
             NaN             NaN             NaN
             NaN             NaN             NaN
             NaN             NaN             NaN
             NaN             NaN             NaN
             NaN             NaN             NaN
             NaN             NaN             NaN
             NaN             NaN             NaN
             NaN             NaN             NaN
             NaN             NaN             NaN
             NaN             NaN             NaN
             NaN             NaN             NaN
             NaN             NaN             NaN
             NaN             NaN             NaN
             NaN             NaN             NaN
             NaN             NaN             NaN
             NaN             NaN             NaN
             NaN             NaN             NaN
             NaN             NaN             NaN
             NaN             NaN             NaN
             NaN             NaN             NaN
             NaN             NaN             NaN
             NaN             NaN             NaN
             NaN             NaN             NaN
             NaN             NaN             NaN
             NaN             NaN             NaN
