Fe4 P16 O44                             
   1.00000000000000     
    -5.7440115483827112   -6.5529264914469545    2.8404922862359392
    -5.7445324476508448    6.5611416748232330    2.9787381983091485
    -0.0471359738668505   -0.0118076949252426  -10.6565990459067539
   Fe   P    O 
     4    16    44
Direct
  0.2251123294228208  0.7681423721994136  0.5001898333530619
  0.7748288063220414  0.2318334088638636  0.4997599647551567
  0.7438549928793634  0.7208914471805770  0.9802765320833444
  0.2561301703604926  0.2790897418121574  0.0197030651650891
  0.5864405352440158  0.3912012257034192  0.7136594519061887
  0.4135588005822299  0.6088440427109845  0.2862902375326897
  0.0900096103818626  0.9472699296265930  0.7528703174902560
  0.9099903480558140  0.0527511018446489  0.2472093848364594
  0.7628093694641009  0.9255946685441430  0.6123853557246193
  0.2371776309735552  0.0743832512579417  0.3875933030819141
  0.5583420294133177  0.9131788531205629  0.7736084983130880
  0.4416312216053981  0.0868388550129779  0.2263962122135439
  0.0969053014590813  0.7281657404023250  0.9119776476748243
  0.9030798444151102  0.2718259476363514  0.0880865347033009
  0.5674990676683578  0.2511903899704038  0.9266594367749406
  0.4325141772543546  0.7488010438945807  0.0732881366996665
  0.2633952665596055  0.4134555931866259  0.5561012009900068
  0.7366089317374929  0.5865383860109290  0.4438643573140197
  0.0984973001297504  0.4044341519827697  0.7611544153583836
  0.9015762754654446  0.5955554196308412  0.2388647320480146
  0.9475910451616159  0.3091151396256677  0.6982581801110541
  0.0525036427732175  0.6908633290443831  0.3017932090626587
  0.8115600990602445  0.9038614450585385  0.1831051458893711
  0.1884248865378808  0.0961753115664834  0.8169842646044785
  0.2928373951364449  0.4802917978068493  0.1935106183162816
  0.7072081586616008  0.5196844345687950  0.8065255021615414
  0.8169460228809697  0.6390086145760066  0.3550318683415270
  0.1830885548142263  0.3610201626007381  0.6449642871193006
  0.3680744919524130  0.0263942302175337  0.3240509782837790
  0.6319228686356482  0.9735892995177764  0.6759454590980098
  0.9194452788042966  0.1665869269624096  0.3847495176451332
  0.0806705996659716  0.8334045720019390  0.6153829033856510
  0.7380561785553610  0.7425308685253711  0.5627661713930152
  0.2619508363323035  0.2574507118505380  0.4372269056495668
  0.5884546559663733  0.1858086335412352  0.3113473017969923
  0.4115208297933393  0.8142138252059610  0.6886673094727769
  0.3151840432126249  0.1366733512446885  0.1318027054792523
  0.6847394180003690  0.8633308521586258  0.8682367496566030
  0.1968781706195344  0.5298390549089120  0.4989617536531412
  0.8031012500410668  0.4701515461626826  0.5010224944704973
  0.9124322646186229  0.9715838398188055  0.7447280170882493
  0.0875432162365328  0.0284163450180301  0.2552484653420564
  0.2507670971954497  0.7291070847385583  0.0308612897122558
  0.7492480623730557  0.2708749774173640  0.9691622429257265
  0.5164348474757929  0.3116710387093491  0.8020173337317900
  0.4836378179485337  0.6881503267547515  0.1978186172012713
  0.9175343295892873  0.4146233204502678  0.2212109935087412
  0.0824718335582588  0.5853744523849116  0.7788582955356773
  0.7903403887877118  0.5897390435242755  0.1036445290070844
  0.2097828230814542  0.4101783399933794  0.8963297964045438
  0.6117214945127571  0.2650765187903872  0.5985455047419848
  0.3881833461580300  0.7350867263801533  0.4012669020145267
  0.0294488559638708  0.2604525112515503  0.0322038190506717
  0.9705451384357175  0.7395263486879387  0.9678747377645180
  0.5639766244417217  0.5356218777003292  0.3518971383503242
  0.4360156327913813  0.4644456754704436  0.6481164751575292
  0.4953122441474704  0.6788354047913501  0.9608901744426461
  0.5046494824411383  0.3212378192508609  0.0390008180051495
  0.5180949734331293  0.0741207854882902  0.8627056088476337
  0.4818508997325850  0.9258800181518509  0.1372837428671190
  0.1359639259012511  0.8666492409675257  0.8708786434275666
  0.8639572440000194  0.1333771067838327  0.1292022371815023
  0.7615409866267910  0.9894783473848676  0.5038186462355938
  0.2384260345497182  0.0105131723536829  0.4961640278466390
 
  0.00000000E+00  0.00000000E+00  0.00000000E+00
  0.00000000E+00  0.00000000E+00  0.00000000E+00
  0.00000000E+00  0.00000000E+00  0.00000000E+00
  0.00000000E+00  0.00000000E+00  0.00000000E+00
  0.00000000E+00  0.00000000E+00  0.00000000E+00
  0.00000000E+00  0.00000000E+00  0.00000000E+00
  0.00000000E+00  0.00000000E+00  0.00000000E+00
  0.00000000E+00  0.00000000E+00  0.00000000E+00
  0.00000000E+00  0.00000000E+00  0.00000000E+00
  0.00000000E+00  0.00000000E+00  0.00000000E+00
  0.00000000E+00  0.00000000E+00  0.00000000E+00
  0.00000000E+00  0.00000000E+00  0.00000000E+00
  0.00000000E+00  0.00000000E+00  0.00000000E+00
  0.00000000E+00  0.00000000E+00  0.00000000E+00
  0.00000000E+00  0.00000000E+00  0.00000000E+00
  0.00000000E+00  0.00000000E+00  0.00000000E+00
  0.00000000E+00  0.00000000E+00  0.00000000E+00
  0.00000000E+00  0.00000000E+00  0.00000000E+00
  0.00000000E+00  0.00000000E+00  0.00000000E+00
  0.00000000E+00  0.00000000E+00  0.00000000E+00
  0.00000000E+00  0.00000000E+00  0.00000000E+00
  0.00000000E+00  0.00000000E+00  0.00000000E+00
  0.00000000E+00  0.00000000E+00  0.00000000E+00
  0.00000000E+00  0.00000000E+00  0.00000000E+00
  0.00000000E+00  0.00000000E+00  0.00000000E+00
  0.00000000E+00  0.00000000E+00  0.00000000E+00
  0.00000000E+00  0.00000000E+00  0.00000000E+00
  0.00000000E+00  0.00000000E+00  0.00000000E+00
  0.00000000E+00  0.00000000E+00  0.00000000E+00
  0.00000000E+00  0.00000000E+00  0.00000000E+00
  0.00000000E+00  0.00000000E+00  0.00000000E+00
  0.00000000E+00  0.00000000E+00  0.00000000E+00
  0.00000000E+00  0.00000000E+00  0.00000000E+00
  0.00000000E+00  0.00000000E+00  0.00000000E+00
  0.00000000E+00  0.00000000E+00  0.00000000E+00
  0.00000000E+00  0.00000000E+00  0.00000000E+00
  0.00000000E+00  0.00000000E+00  0.00000000E+00
  0.00000000E+00  0.00000000E+00  0.00000000E+00
  0.00000000E+00  0.00000000E+00  0.00000000E+00
  0.00000000E+00  0.00000000E+00  0.00000000E+00
  0.00000000E+00  0.00000000E+00  0.00000000E+00
  0.00000000E+00  0.00000000E+00  0.00000000E+00
  0.00000000E+00  0.00000000E+00  0.00000000E+00
  0.00000000E+00  0.00000000E+00  0.00000000E+00
  0.00000000E+00  0.00000000E+00  0.00000000E+00
  0.00000000E+00  0.00000000E+00  0.00000000E+00
  0.00000000E+00  0.00000000E+00  0.00000000E+00
  0.00000000E+00  0.00000000E+00  0.00000000E+00
  0.00000000E+00  0.00000000E+00  0.00000000E+00
  0.00000000E+00  0.00000000E+00  0.00000000E+00
  0.00000000E+00  0.00000000E+00  0.00000000E+00
  0.00000000E+00  0.00000000E+00  0.00000000E+00
  0.00000000E+00  0.00000000E+00  0.00000000E+00
  0.00000000E+00  0.00000000E+00  0.00000000E+00
  0.00000000E+00  0.00000000E+00  0.00000000E+00
  0.00000000E+00  0.00000000E+00  0.00000000E+00
  0.00000000E+00  0.00000000E+00  0.00000000E+00
  0.00000000E+00  0.00000000E+00  0.00000000E+00
  0.00000000E+00  0.00000000E+00  0.00000000E+00
  0.00000000E+00  0.00000000E+00  0.00000000E+00
  0.00000000E+00  0.00000000E+00  0.00000000E+00
  0.00000000E+00  0.00000000E+00  0.00000000E+00
  0.00000000E+00  0.00000000E+00  0.00000000E+00
  0.00000000E+00  0.00000000E+00  0.00000000E+00
