Ca19 V16 P24 O96
1.0
-5.193935 7.350619 8.875242
5.104642 -7.292749 8.774294
10.289280 7.343639 -0.163589
Ca V P O
19 16 24 96
direct
0.563048 0.734946 0.419019 Ca
0.503737 0.981745 0.017365 Ca
0.004043 0.976759 0.517104 Ca
0.001843 0.479528 0.018519 Ca
0.482743 0.019252 0.490342 Ca
0.474740 0.513711 0.998043 Ca
0.984426 0.518272 0.487929 Ca
0.978126 0.014986 0.993809 Ca
0.574332 0.429153 0.264026 Ca
0.571659 0.916628 0.740600 Ca
0.075842 0.913300 0.243982 Ca
0.068379 0.415597 0.736933 Ca
0.282732 0.571472 0.448053 Ca
0.254825 0.082329 0.924958 Ca
0.750210 0.078229 0.422020 Ca
0.754893 0.577193 0.926537 Ca
0.579642 0.252288 0.921268 Ca
0.073753 0.247099 0.419895 Ca
0.074648 0.746573 0.917468 Ca
0.638811 0.635250 0.639223 V
0.646685 0.135871 0.147230 V
0.144765 0.138695 0.643231 V
0.146761 0.641250 0.138292 V
0.147120 0.147944 0.145774 V
0.145260 0.647177 0.644573 V
0.647685 0.647513 0.144574 V
0.645831 0.149807 0.648674 V
0.852984 0.855840 0.847354 V
0.850982 0.355339 0.350023 V
0.354057 0.355634 0.848139 V
0.350693 0.859042 0.350680 V
0.347672 0.348357 0.349864 V
0.350944 0.849913 0.851709 V
0.853149 0.849276 0.350070 V
0.849559 0.348804 0.850527 V
0.400821 0.755615 0.597305 P
0.402558 0.248281 0.094752 P
0.900560 0.246582 0.593591 P
0.901834 0.749334 0.093696 P
0.396519 0.599575 0.243862 P
0.403451 0.101740 0.754924 P
0.904174 0.098996 0.252416 P
0.899629 0.601040 0.750709 P
0.604715 0.406710 0.758815 P
0.606521 0.899589 0.260643 P
0.106594 0.903602 0.759840 P
0.108204 0.406896 0.260902 P
0.241166 0.389074 0.594106 P
0.241709 0.895139 0.091712 P
0.740078 0.893553 0.590795 P
0.742432 0.394924 0.096180 P
0.745216 0.597190 0.394914 P
0.736899 0.092199 0.891299 P
0.236624 0.094031 0.390024 P
0.235077 0.591390 0.888061 P
0.596713 0.241756 0.393780 P
0.601463 0.747400 0.891289 P
0.106861 0.751739 0.393445 P
0.101766 0.246832 0.894420 P
0.667445 0.593387 0.487344 O
0.658331 0.081829 0.984635 O
0.158778 0.080093 0.483687 O
0.154974 0.580289 0.980715 O
0.163679 0.487105 0.579637 O
0.160887 0.988506 0.076161 O
0.660159 0.988618 0.576123 O
0.659753 0.486399 0.080186 O
0.487571 0.672587 0.577676 O
0.492027 0.164898 0.078288 O
0.987675 0.160981 0.574508 O
0.989697 0.664648 0.075404 O
0.595012 0.174020 0.494722 O
0.591832 0.659287 0.975491 O
0.107137 0.660421 0.473923 O
0.089096 0.165469 0.984391 O
0.596694 0.487016 0.672918 O
0.595215 0.975143 0.168441 O
0.096523 0.980271 0.668766 O
0.093575 0.484592 0.170787 O
0.492833 0.587173 0.170294 O
0.486315 0.081200 0.668411 O
0.990088 0.080762 0.168628 O
0.983123 0.581857 0.663745 O
0.510114 0.415832 0.837884 O
0.513905 0.911113 0.339939 O
0.012386 0.915807 0.837394 O
0.012985 0.413125 0.338339 O
0.500120 0.310976 0.386807 O
0.514356 0.831785 0.905818 O
0.009258 0.824175 0.408840 O
0.016668 0.334189 0.902168 O
0.827124 0.509703 0.403974 O
0.826384 0.013470 0.901240 O
0.330541 0.020615 0.398495 O
0.324503 0.512981 0.900005 O
0.407809 0.504118 0.321077 O
0.418945 0.009252 0.837101 O
0.920513 0.007599 0.335514 O
0.916500 0.507800 0.831882 O
0.416662 0.837274 0.506005 O
0.420998 0.330209 0.004350 O
0.920856 0.330813 0.505823 O
0.921009 0.831577 0.004108 O
0.324572 0.400914 0.509485 O
0.329570 0.915292 0.010515 O
0.827505 0.914063 0.508755 O
0.827609 0.414988 0.010445 O
0.294736 0.696511 0.588655 O
0.298685 0.185148 0.081297 O
0.794985 0.187715 0.578983 O
0.797313 0.688121 0.081156 O
0.788152 0.600688 0.709576 O
0.795619 0.093183 0.204665 O
0.291799 0.100808 0.713611 O
0.298155 0.598398 0.177186 O
0.113013 0.291372 0.223140 O
0.106886 0.787829 0.723089 O
0.605346 0.783313 0.225379 O
0.607972 0.290193 0.723308 O
0.670630 0.793556 0.572511 O
0.677672 0.291697 0.080710 O
0.163363 0.293447 0.580378 O
0.173267 0.794813 0.071228 O
0.672387 0.582157 0.296747 O
0.666821 0.070201 0.793153 O
0.166936 0.070235 0.292150 O
0.164403 0.569283 0.790342 O
0.590520 0.698547 0.781161 O
0.605434 0.154539 0.306969 O
0.090579 0.186291 0.790330 O
0.103171 0.706857 0.281485 O
0.412984 0.311375 0.197715 O
0.414029 0.820089 0.700144 O
0.915116 0.811904 0.197503 O
0.913382 0.306379 0.699032 O
0.400719 0.696520 0.321633 O
0.422468 0.202222 0.823664 O
0.917473 0.200981 0.320529 O
0.919118 0.701119 0.820252 O
0.205041 0.434636 0.330342 O
0.203891 0.926535 0.830597 O
0.706394 0.922939 0.327408 O
0.701228 0.424348 0.834789 O
0.781950 0.895170 0.702360 O
0.790123 0.402155 0.204843 O
0.280810 0.389650 0.706329 O
0.282002 0.895384 0.203609 O
0.268880 0.211201 0.389483 O
0.273133 0.706677 0.887144 O
0.799391 0.705285 0.391845 O
0.775662 0.207142 0.890412 O
0.692970 0.316172 0.385408 O
0.708094 0.802945 0.902704 O
0.201005 0.827422 0.406415 O
0.210522 0.298482 0.903400 O
