Co4 P16 O44                             
   1.00000000000000     
     5.0353951457492574    0.0003860840792025   -1.8134471872047446
    -0.0016663929793957   22.1994921232522486   -0.0000353458434542
    -0.0248574618027966    0.0003313743235836    7.3826820536444062
   Co   P    O 
     4    16    44
Direct
  0.0049449450614641  0.1143401552171049  0.8689558825504973
  0.9950230340563991  0.6143423350173567  0.6310220179334605
  0.9950492039500470  0.8856653439898827  0.1310210909512460
  0.0049555144454523  0.3856419709118052  0.3689330864698043
  0.3938728116567057  0.0352978945898118  0.7069286061009217
  0.6061864198907327  0.5353168014258554  0.7930874106212424
  0.6061892493177250  0.9646969892264804  0.2930773994062359
  0.3938129505233834  0.4646869766499531  0.2069063862214425
  0.6900456937745586  0.9279818680088456  0.6903016632964711
  0.3100036650853376  0.4280025676943197  0.8096680184408964
  0.3099904003879655  0.0720013269974528  0.3097034574497831
  0.6900233672477875  0.5720117882378140  0.1903198263219235
  0.3171813522280247  0.8223257108732219  0.5511085895385942
  0.6828359233651431  0.3223272707259391  0.9488996489202181
  0.6827998477969445  0.1776658668022764  0.4489052234147353
  0.3171739349561569  0.6776816821471554  0.0511099130661081
  0.3840547509511326  0.6953214466215084  0.4664416571631558
  0.6158365562026216  0.1953091435813402  0.0335742479765957
  0.6159834002761069  0.3046880437309212  0.5335646909806925
  0.3840880983423198  0.8046858975162058  0.9664494703889788
  0.1988930789925626  0.0438988725640873  0.8035725171326019
  0.8011866633568685  0.5439353441566019  0.6964464577330611
  0.8011659847203948  0.9560758702873001  0.1964184372649945
  0.1987562977594444  0.4561036266459563  0.3034999337807203
  0.6482081021941773  0.0669005604554011  0.7553193642999544
  0.3517536405611724  0.5668826803984707  0.7446313493059757
  0.3517474052242340  0.9331360128967696  0.2446209093986192
  0.6481254407270047  0.4330681575134319  0.2553486008161360
  0.7660180931670463  0.9557405679371420  0.5231361020921191
  0.2340218587920213  0.4557573587802370  0.9768279759433589
  0.2340245675234608  0.0442375113651470  0.4768606511785892
  0.7659913840542643  0.5442616090794299  0.0231474395315709
  0.4449804506741726  0.9629377322660172  0.7069165375876899
  0.5550949809509249  0.4629540430702147  0.7930555873198933
  0.5550887824810107  0.0370584648058381  0.2930763795923372
  0.4449866043287440  0.5370471452726725  0.2069485589385102
  0.9233219369882960  0.9234126539369020  0.8635440873927407
  0.0767136122114894  0.4234260639133724  0.6364516207223134
  0.0767365785341500  0.0765839446733735  0.1364672918143734
  0.9233019839190142  0.5765836821924868  0.3635587663676492
  0.5678678362778122  0.8644678705666705  0.6157765200222378
  0.4321929332621335  0.3644782435829054  0.8841905460801034
  0.4321183415087015  0.1355285947119403  0.3842160079685493
  0.5677967455814625  0.6355231727154576  0.1157912121078861
  0.0834068820932361  0.8463011288871001  0.4010128533988398
  0.9166167389594296  0.3462773088878181  0.0990567500576478
  0.9165936755080549  0.1536996320031259  0.5990259947853240
  0.0834091110810748  0.6537135350889846  0.9010043311787067
  0.4523717624324103  0.7665730192769490  0.4949975354227665
  0.5476660896455398  0.2665680966931092  0.0049970556473155
  0.5476824540300449  0.2334329632656811  0.5050135721522493
  0.4523959971437039  0.7334323581643513  0.9950013139955871
  0.2471416863747300  0.8068755911975480  0.7331224380634571
  0.7528846958391122  0.3068774657164474  0.7668945355103676
  0.7528752135080325  0.1931115740624627  0.2668970699264353
  0.2471310333443164  0.6931382486663169  0.2331138444485202
  0.1719725892787622  0.6844340447470292  0.5471075532292068
  0.8277876489670092  0.1843664927599221  0.9528162368353638
  0.8280757785915546  0.3156035591008189  0.4529174014322314
  0.1720153408247011  0.8155726237926819  0.0471251984223121
  0.6338273186427175  0.6619990849465370  0.5211878355403224
  0.3659619622557823  0.1620334657571368  0.9789309520118656
  0.3661745604858182  0.3379945301431338  0.4787954410449144
  0.6338650376874123  0.8380044130897626  0.0211809452915927
 
  0.00000000E+00  0.00000000E+00  0.00000000E+00
  0.00000000E+00  0.00000000E+00  0.00000000E+00
  0.00000000E+00  0.00000000E+00  0.00000000E+00
  0.00000000E+00  0.00000000E+00  0.00000000E+00
  0.00000000E+00  0.00000000E+00  0.00000000E+00
  0.00000000E+00  0.00000000E+00  0.00000000E+00
  0.00000000E+00  0.00000000E+00  0.00000000E+00
  0.00000000E+00  0.00000000E+00  0.00000000E+00
  0.00000000E+00  0.00000000E+00  0.00000000E+00
  0.00000000E+00  0.00000000E+00  0.00000000E+00
  0.00000000E+00  0.00000000E+00  0.00000000E+00
  0.00000000E+00  0.00000000E+00  0.00000000E+00
  0.00000000E+00  0.00000000E+00  0.00000000E+00
  0.00000000E+00  0.00000000E+00  0.00000000E+00
  0.00000000E+00  0.00000000E+00  0.00000000E+00
  0.00000000E+00  0.00000000E+00  0.00000000E+00
  0.00000000E+00  0.00000000E+00  0.00000000E+00
  0.00000000E+00  0.00000000E+00  0.00000000E+00
  0.00000000E+00  0.00000000E+00  0.00000000E+00
  0.00000000E+00  0.00000000E+00  0.00000000E+00
  0.00000000E+00  0.00000000E+00  0.00000000E+00
  0.00000000E+00  0.00000000E+00  0.00000000E+00
  0.00000000E+00  0.00000000E+00  0.00000000E+00
  0.00000000E+00  0.00000000E+00  0.00000000E+00
  0.00000000E+00  0.00000000E+00  0.00000000E+00
  0.00000000E+00  0.00000000E+00  0.00000000E+00
  0.00000000E+00  0.00000000E+00  0.00000000E+00
  0.00000000E+00  0.00000000E+00  0.00000000E+00
  0.00000000E+00  0.00000000E+00  0.00000000E+00
  0.00000000E+00  0.00000000E+00  0.00000000E+00
  0.00000000E+00  0.00000000E+00  0.00000000E+00
  0.00000000E+00  0.00000000E+00  0.00000000E+00
  0.00000000E+00  0.00000000E+00  0.00000000E+00
  0.00000000E+00  0.00000000E+00  0.00000000E+00
  0.00000000E+00  0.00000000E+00  0.00000000E+00
  0.00000000E+00  0.00000000E+00  0.00000000E+00
  0.00000000E+00  0.00000000E+00  0.00000000E+00
  0.00000000E+00  0.00000000E+00  0.00000000E+00
  0.00000000E+00  0.00000000E+00  0.00000000E+00
  0.00000000E+00  0.00000000E+00  0.00000000E+00
  0.00000000E+00  0.00000000E+00  0.00000000E+00
  0.00000000E+00  0.00000000E+00  0.00000000E+00
  0.00000000E+00  0.00000000E+00  0.00000000E+00
  0.00000000E+00  0.00000000E+00  0.00000000E+00
  0.00000000E+00  0.00000000E+00  0.00000000E+00
  0.00000000E+00  0.00000000E+00  0.00000000E+00
  0.00000000E+00  0.00000000E+00  0.00000000E+00
  0.00000000E+00  0.00000000E+00  0.00000000E+00
  0.00000000E+00  0.00000000E+00  0.00000000E+00
  0.00000000E+00  0.00000000E+00  0.00000000E+00
  0.00000000E+00  0.00000000E+00  0.00000000E+00
  0.00000000E+00  0.00000000E+00  0.00000000E+00
  0.00000000E+00  0.00000000E+00  0.00000000E+00
  0.00000000E+00  0.00000000E+00  0.00000000E+00
  0.00000000E+00  0.00000000E+00  0.00000000E+00
  0.00000000E+00  0.00000000E+00  0.00000000E+00
  0.00000000E+00  0.00000000E+00  0.00000000E+00
  0.00000000E+00  0.00000000E+00  0.00000000E+00
  0.00000000E+00  0.00000000E+00  0.00000000E+00
  0.00000000E+00  0.00000000E+00  0.00000000E+00
  0.00000000E+00  0.00000000E+00  0.00000000E+00
  0.00000000E+00  0.00000000E+00  0.00000000E+00
  0.00000000E+00  0.00000000E+00  0.00000000E+00
  0.00000000E+00  0.00000000E+00  0.00000000E+00
