Co8 Si4 O16                             
   1.00000000000000     
    10.2472018248055843   -0.0000143721121929    0.0002260242143738
    -0.0005057380448281    5.9944895687742203    0.0000607776914790
     0.0000865136329026   -0.0002804392353462    4.7949293490294238
   Co   Si   O 
     8     4    16
Direct
  0.5000114475203873  0.0000768497497942  0.5000062661047073
  0.9999439057123278  0.4996306763452511  0.9999328775348306
  0.4999421966446438  0.4996271634748880  0.5001026537299037
  0.0000264049740593  0.0001110058882019  0.0000156453187328
  0.7737054393751325  0.2492779531679249  0.5030512775347898
  0.2737544990922887  0.2494655539831213  0.9967924859349963
  0.2259371749648385  0.7500481214296137  0.4958210658839381
  0.7259581417827263  0.7500318325305195  0.0041451691980856
  0.5941302341082335  0.2502139766674201  0.0727919553850650
  0.0941473155745233  0.2502131120986548  0.4271908916789867
  0.4059060987764531  0.7499536712286278  0.9269708945723728
  0.9058926694658921  0.7498972724833588  0.5730893229652275
  0.5928667824529561  0.2499020369101488  0.7340723797473477
  0.0928998443245717  0.2499325891676320  0.7659169547098411
  0.4072628050540615  0.7500684638907960  0.2657536737074100
  0.9072571729194305  0.7500828926347787  0.2342965755043593
  0.9465290068995773  0.2503009872154107  0.2863253187254131
  0.4465222773883949  0.2502588293126016  0.2137074994960551
  0.0535485995382820  0.7499465841039060  0.7138163647978378
  0.5535603976808253  0.7499830057483772  0.7862385565845190
  0.6621921797012077  0.0329523970754883  0.2218282647213674
  0.1623443098544375  0.4673565414614291  0.2783647883115679
  0.3377147549165436  0.5327695219152843  0.7781014462830601
  0.8378747148048090  0.9674349654380150  0.7215885272327237
  0.3378676516529087  0.9674199169583644  0.7783975387485442
  0.8376700746458134  0.5327251433273574  0.7219037476305593
  0.6623193348672193  0.4673759094255407  0.2215997752745989
  0.1622145653074411  0.0329430263675009  0.2781780826831379
 
  0.00000000E+00  0.00000000E+00  0.00000000E+00
  0.00000000E+00  0.00000000E+00  0.00000000E+00
  0.00000000E+00  0.00000000E+00  0.00000000E+00
  0.00000000E+00  0.00000000E+00  0.00000000E+00
  0.00000000E+00  0.00000000E+00  0.00000000E+00
  0.00000000E+00  0.00000000E+00  0.00000000E+00
  0.00000000E+00  0.00000000E+00  0.00000000E+00
  0.00000000E+00  0.00000000E+00  0.00000000E+00
  0.00000000E+00  0.00000000E+00  0.00000000E+00
  0.00000000E+00  0.00000000E+00  0.00000000E+00
  0.00000000E+00  0.00000000E+00  0.00000000E+00
  0.00000000E+00  0.00000000E+00  0.00000000E+00
  0.00000000E+00  0.00000000E+00  0.00000000E+00
  0.00000000E+00  0.00000000E+00  0.00000000E+00
  0.00000000E+00  0.00000000E+00  0.00000000E+00
  0.00000000E+00  0.00000000E+00  0.00000000E+00
  0.00000000E+00  0.00000000E+00  0.00000000E+00
  0.00000000E+00  0.00000000E+00  0.00000000E+00
  0.00000000E+00  0.00000000E+00  0.00000000E+00
  0.00000000E+00  0.00000000E+00  0.00000000E+00
  0.00000000E+00  0.00000000E+00  0.00000000E+00
  0.00000000E+00  0.00000000E+00  0.00000000E+00
  0.00000000E+00  0.00000000E+00  0.00000000E+00
  0.00000000E+00  0.00000000E+00  0.00000000E+00
  0.00000000E+00  0.00000000E+00  0.00000000E+00
  0.00000000E+00  0.00000000E+00  0.00000000E+00
  0.00000000E+00  0.00000000E+00  0.00000000E+00
  0.00000000E+00  0.00000000E+00  0.00000000E+00
