Calcium oxide                           
   1.00000000000000     
     4.7932468917655493   -0.0000000652655191   -0.0000000441187596
    -0.0000000652123986    4.7932468407549864   -0.0000001438974738
    -0.0000000442503849   -0.0000001441899619    4.7932465886442248
   Ca   O 
     4     4
Direct
  0.0000000036182412 -0.0000000496127748 -0.0000000042436657
 -0.0000000058569489  0.5000000276738229  0.4999999745135521
  0.4999999722282147  0.0000000216193131  0.4999999913848001
  0.4999999840919853  0.4999999978890839  0.0000000144601843
  0.5000000044148909  0.5000000109846816  0.5000000073350094
  0.5000000108688679 -0.0000000082810059  0.0000000063819748
  0.0000000184897180  0.4999999924573643  0.0000000079194605
  0.0000000121450309  0.0000000072695150  0.5000000022486846
 
  0.00000000E+00  0.00000000E+00  0.00000000E+00
  0.00000000E+00  0.00000000E+00  0.00000000E+00
  0.00000000E+00  0.00000000E+00  0.00000000E+00
  0.00000000E+00  0.00000000E+00  0.00000000E+00
  0.00000000E+00  0.00000000E+00  0.00000000E+00
  0.00000000E+00  0.00000000E+00  0.00000000E+00
  0.00000000E+00  0.00000000E+00  0.00000000E+00
  0.00000000E+00  0.00000000E+00  0.00000000E+00
