Ca4 O4                                  
   1.00000000000000     
     4.8326391843062231    0.0000003468764789   -0.0000002371848414
     0.0000003460791997    4.8326381560007752   -0.0000000935678970
    -0.0000002370104064   -0.0000000928581681    4.8326374000737609
   Ca   O 
     4     4
Direct
 -0.0000000711954703  0.0000000261686146 -0.0000000016915689
  0.0000001088066467  0.5000000014745127  0.5000000559649868
  0.5000000576184247 -0.0000000350402471  0.5000000623884654
  0.4999998781057504  0.5000000665858585 -0.0000000899291004
  0.5000000812336843  0.5000000233598217  0.5000000801338758
  0.4999999082814496  0.0000000182340530 -0.0000001071777259
  0.0000000855733073  0.4999999546801586 -0.0000000080649019
 -0.0000000484237928 -0.0000000554627721  0.5000000083759694
 
  0.00000000E+00  0.00000000E+00  0.00000000E+00
  0.00000000E+00  0.00000000E+00  0.00000000E+00
  0.00000000E+00  0.00000000E+00  0.00000000E+00
  0.00000000E+00  0.00000000E+00  0.00000000E+00
  0.00000000E+00  0.00000000E+00  0.00000000E+00
  0.00000000E+00  0.00000000E+00  0.00000000E+00
  0.00000000E+00  0.00000000E+00  0.00000000E+00
  0.00000000E+00  0.00000000E+00  0.00000000E+00
