Ca4 Co4 P6 O24                          
   1.00000000000000     
     2.5720320000000001    7.2334509999999996    4.3504579999999997
     0.0158790000000000   -0.0145120000000000    8.6814789999999995
     7.6339589999999999    0.0228000000000000    4.2254690000000004
   Ca   Co   P    O 
     4     4     6    24
Direct
  0.2811806753709543  0.7792095164855262  0.5673345345559438
  0.9402566387424962  0.0146600918715298  0.0195311668131784
  0.3783331455921670  0.7462572738660804  0.1071184658120353
  0.1229961145247821  0.3828919985115577  0.7495837253854235
  0.6567943823222142  0.6138375089264151  0.6509606314195172
  0.1463908210625421  0.1483606620676120  0.1558347059998292
  0.8369093822151069  0.8651344945618764  0.8428026607104164
  0.3648705705875164  0.3362783791429598  0.3444094310282858
  0.2493557111345715  0.5466582097279687  0.9559110491177907
  0.0279204848676442  0.7578513192985422  0.4522592335651285
  0.9586807415925079  0.2517686158449490  0.5505923815126846
  0.4597444400421112  0.0282435881296909  0.7501253404582424
  0.5486136426926274  0.9490257257672052  0.2422207698949265
  0.7586423860060091  0.4472701067103613  0.0291544148740606
  0.5574401534516610  0.8099989041898016  0.4341579973230821
  0.2629031396573259  0.0665515971412654  0.9090374907332227
  0.4236856333797413  0.5511078318203965  0.7788572867803201
  0.9194710688876110  0.2660679661900603  0.0719304651989622
  0.7808473037419829  0.4199225061878855  0.5478983555081830
  0.0629085673461013  0.8987446499181422  0.2544551021182523
  0.9202032249654788  0.0910155442695608  0.7352729511654692
  0.5829950801613638  0.4629767748867135  0.1973196716295974
  0.7323902190050536  0.8861788866833596  0.0943999272645706
  0.2217109008747245  0.6002175342276627  0.4500612843420755
  0.1045059274949599  0.7414121777495220  0.8983673945469441
  0.4366927835602462  0.1923378914478973  0.5770284682762905
  0.1949225791576198  0.3911825536880175  0.9826767095590127
  0.8804376746316744  0.6845503756948184  0.5106772276543184
  0.0300045274597206  0.1859927624758879  0.3877595721405929
  0.4979030011336972  0.8314176250126847  0.7583621188549261
  0.3838954711048012  0.9393440771639284  0.2278034362438251
  0.7380100726423067  0.4335854091430295  0.8716817892013913
  0.2744885987931903  0.5304808420580783  0.1245815724475287
  0.9910573729551944  0.8387007300295574  0.5935422023457833
  0.1113608489560806  0.2961213066894202  0.5431743051842558
  0.5979467392117089  0.0156172935519521  0.8141106197817981
  0.5176834651227041  0.1448102611925851  0.2217891740819491
  0.8250844560588850  0.6134260296059346  0.9461578629563342
 
             NaN             NaN             NaN
             NaN             NaN             NaN
             NaN             NaN             NaN
             NaN             NaN             NaN
             NaN             NaN             NaN
             NaN             NaN             NaN
             NaN             NaN             NaN
             NaN             NaN             NaN
             NaN             NaN             NaN
             NaN             NaN             NaN
             NaN             NaN             NaN
             NaN             NaN             NaN
             NaN             NaN             NaN
             NaN             NaN             NaN
             NaN             NaN             NaN
             NaN             NaN             NaN
             NaN             NaN             NaN
             NaN             NaN             NaN
             NaN             NaN             NaN
             NaN             NaN             NaN
             NaN             NaN             NaN
             NaN             NaN             NaN
             NaN             NaN             NaN
             NaN             NaN             NaN
             NaN             NaN             NaN
             NaN             NaN             NaN
             NaN             NaN             NaN
             NaN             NaN             NaN
             NaN             NaN             NaN
             NaN             NaN             NaN
             NaN             NaN             NaN
             NaN             NaN             NaN
             NaN             NaN             NaN
             NaN             NaN             NaN
             NaN             NaN             NaN
             NaN             NaN             NaN
             NaN             NaN             NaN
             NaN             NaN             NaN
