Ca4 Co4 P6 O24                          
   1.00000000000000     
     2.5720320000000001    7.2334509999999996    4.3504579999999997
     0.0158790000000000   -0.0145120000000000    8.6814789999999995
     7.6339589999999999    0.0228000000000000    4.2254690000000004
   Ca   Co   P    O 
     4     4     6    24
Direct
  0.2811607760706795  0.7792436735131854  0.5673705246212549
  0.9402430154016748  0.0146526050181446  0.0195375021668900
  0.3783302641720658  0.7462557390301275  0.1071155152935992
  0.1230089647696738  0.3828970844800006  0.7495975558112010
  0.6567628897922674  0.6138865812022682  0.6509391486301519
  0.1463868892123157  0.1483897092967648  0.1558084238229098
  0.8369279977190666  0.8651217629767667  0.8428066968857779
  0.3647579103723864  0.3362195323462734  0.3445514854428280
  0.2494041033742309  0.5466725479012914  0.9558630756858939
  0.0279347563555410  0.7578705303972719  0.4522349621633349
  0.9586979409617338  0.2517416996581401  0.5505944556321144
  0.4597584916668251  0.0282443491675873  0.7501137805148084
  0.5485967318483455  0.9490583280169076  0.2422304358968015
  0.7586353481831263  0.4472294730308683  0.0291558545884362
  0.5574226465794720  0.8100061846881098  0.4341817736380644
  0.2628977304584788  0.0665855944197464  0.9090129710179387
  0.4236400125398401  0.5511367545471384  0.7788198085482224
  0.9194899801096417  0.2660746926144791  0.0719203001491060
  0.7808367568779124  0.4199090314082350  0.5479300883718631
  0.0629167746625364  0.8987570646990137  0.2544566447517370
  0.9202108912533692  0.0910225726834378  0.7352643002103491
  0.5829869269764567  0.4629517857964370  0.1973473588076526
  0.7324033609604869  0.8861656391332748  0.0943883174413323
  0.2217092054223455  0.6002033111590204  0.4500441347349666
  0.1045134038709748  0.7414051066631876  0.8983332492988647
  0.4367192659927896  0.1923169416845297  0.5770412116293986
  0.1949318647022392  0.3911810509516997  0.9826594260831525
  0.8804425728829343  0.6845865823851126  0.5106302779162220
  0.0300307916309586  0.1859698820487619  0.3877797057714713
  0.4979225378654133  0.8314020814035737  0.7583403193612798
  0.3839215343453655  0.9393466489362364  0.2277828185369055
  0.7380279072031234  0.4336002729072685  0.8716698215961878
  0.2744728147728095  0.5304910089443385  0.1245732142648126
  0.9910391867924864  0.8386847056761286  0.5935636541647658
  0.1113858438510741  0.2960937744926678  0.5432019910126935
  0.5979556807920339  0.0156235284458471  0.8141126832727118
  0.5176877341541553  0.1447918480769933  0.2217885962738106
  0.8250664427992478  0.6134193408201370  0.9461794121698540
 
             NaN             NaN             NaN
             NaN             NaN             NaN
             NaN             NaN             NaN
             NaN             NaN             NaN
             NaN             NaN             NaN
             NaN             NaN             NaN
             NaN             NaN             NaN
             NaN             NaN             NaN
             NaN             NaN             NaN
             NaN             NaN             NaN
             NaN             NaN             NaN
             NaN             NaN             NaN
             NaN             NaN             NaN
             NaN             NaN             NaN
             NaN             NaN             NaN
             NaN             NaN             NaN
             NaN             NaN             NaN
             NaN             NaN             NaN
             NaN             NaN             NaN
             NaN             NaN             NaN
             NaN             NaN             NaN
             NaN             NaN             NaN
             NaN             NaN             NaN
             NaN             NaN             NaN
             NaN             NaN             NaN
             NaN             NaN             NaN
             NaN             NaN             NaN
             NaN             NaN             NaN
             NaN             NaN             NaN
             NaN             NaN             NaN
             NaN             NaN             NaN
             NaN             NaN             NaN
             NaN             NaN             NaN
             NaN             NaN             NaN
             NaN             NaN             NaN
             NaN             NaN             NaN
             NaN             NaN             NaN
             NaN             NaN             NaN
