Fe12 P4                                 
   1.00000000000000     
     0.0036466501474719   -0.0020967953297741   -4.7936200590125084
    -4.6719701014628043   -4.6527166191199614   -2.3917697826544533
    -4.6781234020834574    4.6570355785409330   -2.3981362580360606
   Fe   P 
    12     4
Direct
  0.1214062697261259  0.0262141103357896  0.1809965993904627
  0.3330635923952669  0.9728571560881248  0.8189395392427580
  0.6946740802197418  0.1854769785630011  0.9757611974304883
  0.8558722314107756  0.8202017479794949  0.0245523193010528
  0.9412800253316811  0.6831040036930724  0.4042064546486239
  0.0286297093958369  0.3145355415162735  0.5965195173638956
  0.6517682508175534  0.4044488651647949  0.3162529148270458
  0.3746610662210231  0.5957957595959553  0.6830771056957018
  0.5561271071946763  0.0570295762173281  0.3762645786540711
  0.9901227431494789  0.9417850650604302  0.6244709506645092
  0.0674838248881444  0.3756931529717202  0.9423821382953254
  0.3860800686992258  0.6236665430646690  0.0564890713010386
  0.4376532275285422  0.7661736624034383  0.3431212421093592
  0.5475196002212922  0.2337001203388921  0.6556620852888022
  0.2153984431475740  0.3451238595820457  0.2353016204169162
  0.7982597596530546  0.6541938574249553  0.7660026653699489
 
  0.00000000E+00  0.00000000E+00  0.00000000E+00
  0.00000000E+00  0.00000000E+00  0.00000000E+00
  0.00000000E+00  0.00000000E+00  0.00000000E+00
  0.00000000E+00  0.00000000E+00  0.00000000E+00
  0.00000000E+00  0.00000000E+00  0.00000000E+00
  0.00000000E+00  0.00000000E+00  0.00000000E+00
  0.00000000E+00  0.00000000E+00  0.00000000E+00
  0.00000000E+00  0.00000000E+00  0.00000000E+00
  0.00000000E+00  0.00000000E+00  0.00000000E+00
  0.00000000E+00  0.00000000E+00  0.00000000E+00
  0.00000000E+00  0.00000000E+00  0.00000000E+00
  0.00000000E+00  0.00000000E+00  0.00000000E+00
  0.00000000E+00  0.00000000E+00  0.00000000E+00
  0.00000000E+00  0.00000000E+00  0.00000000E+00
  0.00000000E+00  0.00000000E+00  0.00000000E+00
  0.00000000E+00  0.00000000E+00  0.00000000E+00
