Fe12 P4
1.0
0.000000 0.000000 -4.460000
-4.553500 -4.553500 -2.230000
-4.553500 4.553500 -2.230000
Fe P
12 4
direct
0.127900 0.026600 0.185200 Fe0+
0.339700 0.973400 0.814800 Fe0+
0.686900 0.185200 0.973400 Fe0+
0.845500 0.814800 0.026600 Fe0+
0.955000 0.670500 0.391500 Fe0+
0.017000 0.329500 0.608500 Fe0+
0.653500 0.391500 0.329500 Fe0+
0.374500 0.608500 0.670500 Fe0+
0.535300 0.047800 0.391200 Fe0+
0.974300 0.952200 0.608800 Fe0+
0.073500 0.391200 0.952200 Fe0+
0.416900 0.608800 0.047800 Fe0+
0.444900 0.753300 0.337500 P0+
0.535700 0.246700 0.662500 P0+
0.217600 0.337500 0.246700 P0+
0.801800 0.662500 0.753300 P0+
