Fe4 P8 O24                              
   1.00000000000000     
    -5.2317202382932271   -4.1890653453992392    2.8691721934568117
     5.2300570358026164   -4.1867054548057787   -2.8688443379123165
     5.2213094128978161    4.1886346122577889    7.0360505027971891
   Fe   P    O 
     4     8    24
Direct
  0.4999552947772159  0.5000133190767784  0.4999936103118259
  0.4998788994367374  0.9998640147394084  0.9997741958615123
  0.3010400491598801  0.5496305684200991  0.7501756755861280
  0.6989913848278633  0.4504036103937636  0.2498635502318933
  0.5009742477364298  0.8100945775760664  0.3022477147860343
  0.0077257630352889  0.1989641078597302  0.1978260946975539
  0.4990347055246573  0.1899457683352423  0.6977423877102922
  0.9922348194972201  0.8010449501886612  0.8021876298911224
  0.2020569409517705  0.2461087865758671  0.9768822592480717
  0.7694590522945717  0.2253983526071224  0.5231507323466289
  0.7979522467288973  0.7538553011747098  0.0231520186971395
  0.2306154873888460  0.7746446162417726  0.4768619155114777
  0.0395971435396447  0.0368927324747830  0.8415064024506336
  0.6954821059576162  0.1982600001844688  0.6584608724835093
  0.9602898058646545  0.9630602671571467  0.1584674170255624
  0.3045300632244832  0.8018234487812705  0.3415111932223809
  0.9433179222371422  0.7309511069808750  0.9381013299224890
  0.2929721690631126  0.0053366853129191  0.5618279116125677
  0.0566396874432940  0.2689851062848874  0.0619203902375531
  0.7071071440117223  0.9947372734582913  0.4382020664207431
  0.8018626442757153  0.6944969057635433  0.6535148355669023
  0.5410501430861032  0.1482775028764891  0.8463936959232186
  0.1981291870914959  0.3054296136877923  0.3464980039805212
  0.4590302536830038  0.8517515126122603  0.1535916715689041
  0.1958210379622116  0.7815794271585474  0.8181318339610186
  0.4636815928138063  0.3777394625740627  0.6819069634080961
  0.8041205517524759  0.2184028287920725  0.1818815431237155
  0.5363173732228290  0.6223180574640921  0.3181375417592989
  0.6115753413581757  0.7851587475958013  0.9172677321725331
  0.3681403389198366  0.6943698336005824  0.5826753669523157
  0.3882896438640273  0.2145587420527448  0.0826538107520136
  0.6320551280492808  0.3057227802443805  0.4172629394330443
  0.7557288160907163  0.5857892368773321  0.0904724087260220
  0.9953130356548243  0.6651293266193292  0.4095030014938246
  0.2442263444325476  0.4142184047359123  0.9096299610830272
  0.0048036350418954  0.3350430235211803  0.5906233218404182
 
  0.00000000E+00  0.00000000E+00  0.00000000E+00
  0.00000000E+00  0.00000000E+00  0.00000000E+00
  0.00000000E+00  0.00000000E+00  0.00000000E+00
  0.00000000E+00  0.00000000E+00  0.00000000E+00
  0.00000000E+00  0.00000000E+00  0.00000000E+00
  0.00000000E+00  0.00000000E+00  0.00000000E+00
  0.00000000E+00  0.00000000E+00  0.00000000E+00
  0.00000000E+00  0.00000000E+00  0.00000000E+00
  0.00000000E+00  0.00000000E+00  0.00000000E+00
  0.00000000E+00  0.00000000E+00  0.00000000E+00
  0.00000000E+00  0.00000000E+00  0.00000000E+00
  0.00000000E+00  0.00000000E+00  0.00000000E+00
  0.00000000E+00  0.00000000E+00  0.00000000E+00
  0.00000000E+00  0.00000000E+00  0.00000000E+00
  0.00000000E+00  0.00000000E+00  0.00000000E+00
  0.00000000E+00  0.00000000E+00  0.00000000E+00
  0.00000000E+00  0.00000000E+00  0.00000000E+00
  0.00000000E+00  0.00000000E+00  0.00000000E+00
  0.00000000E+00  0.00000000E+00  0.00000000E+00
  0.00000000E+00  0.00000000E+00  0.00000000E+00
  0.00000000E+00  0.00000000E+00  0.00000000E+00
  0.00000000E+00  0.00000000E+00  0.00000000E+00
  0.00000000E+00  0.00000000E+00  0.00000000E+00
  0.00000000E+00  0.00000000E+00  0.00000000E+00
  0.00000000E+00  0.00000000E+00  0.00000000E+00
  0.00000000E+00  0.00000000E+00  0.00000000E+00
  0.00000000E+00  0.00000000E+00  0.00000000E+00
  0.00000000E+00  0.00000000E+00  0.00000000E+00
  0.00000000E+00  0.00000000E+00  0.00000000E+00
  0.00000000E+00  0.00000000E+00  0.00000000E+00
  0.00000000E+00  0.00000000E+00  0.00000000E+00
  0.00000000E+00  0.00000000E+00  0.00000000E+00
  0.00000000E+00  0.00000000E+00  0.00000000E+00
  0.00000000E+00  0.00000000E+00  0.00000000E+00
  0.00000000E+00  0.00000000E+00  0.00000000E+00
  0.00000000E+00  0.00000000E+00  0.00000000E+00
