Ca1 Ni4 S6 O24
1.0
7.623914 0.272096 4.155941
2.768224 6.963450 4.443639
0.650099 0.226414 8.725539
Ca Ni S O
1 4 6 24
direct
0.342494 0.734292 0.562702 Ca
0.649679 0.647579 0.644419 Ni
0.138949 0.148477 0.146961 Ni
0.847619 0.842113 0.847695 Ni
0.356628 0.348934 0.350676 Ni
0.954676 0.248075 0.533704 S
0.449627 0.036423 0.750541 S
0.545552 0.963778 0.238112 S
0.748321 0.452694 0.046519 S
0.246746 0.536008 0.955536 S
0.040101 0.749968 0.454552 S
0.398561 0.585308 0.763908 O
0.923518 0.284377 0.052715 O
0.794337 0.410827 0.578109 O
0.069413 0.917059 0.289854 O
0.593938 0.771978 0.394272 O
0.297390 1.045627 0.931896 O
0.688766 0.957737 0.052791 O
0.193131 0.579925 0.424232 O
0.065369 0.702053 0.947804 O
0.408822 0.228057 0.597177 O
0.943460 0.065903 0.696055 O
0.592511 0.417518 0.232758 O
0.955264 0.250182 0.365390 O
0.457519 0.889947 0.709274 O
0.351365 0.990096 0.259695 O
0.701293 0.486883 0.892295 O
0.235859 0.364645 0.978919 O
0.859883 0.753923 0.490191 O
0.135165 0.247706 0.501376 O
0.634441 -0.006994 0.751957 O
0.533456 0.114618 0.273297 O
0.771872 0.617346 0.019025 O
0.289504 0.508316 0.108604 O
0.042737 0.749486 0.622774 O
