Ca2 Fe8 O12                             
   1.00000000000000     
     3.0369276955682190   -0.0022688994513406    0.0000108704819066
    -1.5222974076807476    5.0592807058023412   -0.0000039940633978
    -0.0000111140853916    0.0000072303910835   15.1831690343024892
   Ca   Fe   O 
     2     8    12
Direct
  0.6526095622358099  0.3075081805680497  0.2499994156047762
  0.3478191314233854  0.6926181560331557  0.7500006959209742
  0.1364173836398024  0.2706028085664940  0.0452877157620009
  0.8619162090666634  0.7290627504521510  0.9546994825772188
  0.1364927828338054  0.2706243880061194  0.4547113414725246
  0.8619797349315164  0.7290917102051679  0.5452950295284253
  0.4010329561975681  0.8028601616945110  0.1330417639287163
  0.5992320909588216  0.1971987626864689  0.8669710976846687
  0.4010294189273509  0.8028706754496397  0.3669567125797926
  0.5992309281992476  0.1972021968270354  0.6330275942749211
  0.3225118596533321  0.6463428650987169  0.2500036419679503
  0.6778981925830010  0.3537458145155412  0.7500030537340905
  0.7832362851410579  0.5659233356387787  0.0827117938131749
  0.2173103962716567  0.4341585470084794  0.9173074406228707
  0.7832650378682118  0.5659438512684645  0.4172904242300319
  0.2173330005399663  0.4341748293498213  0.5826896829798400
  0.0320702357004166  0.0645384424256079  0.1573143934728662
  0.9687431928506598  0.9355097447433991  0.8427165906455798
  0.0320669573743899  0.0645283656582407  0.3426870813726950
  0.9687404305722822  0.9354927855167503  0.6572836487824532
  0.4995507254434060  0.0000111014418493  0.4999942634793655
  0.4995134875876488  0.9999905268455507  0.0000071355650846
 
  0.00000000E+00  0.00000000E+00  0.00000000E+00
  0.00000000E+00  0.00000000E+00  0.00000000E+00
  0.00000000E+00  0.00000000E+00  0.00000000E+00
  0.00000000E+00  0.00000000E+00  0.00000000E+00
  0.00000000E+00  0.00000000E+00  0.00000000E+00
  0.00000000E+00  0.00000000E+00  0.00000000E+00
  0.00000000E+00  0.00000000E+00  0.00000000E+00
  0.00000000E+00  0.00000000E+00  0.00000000E+00
  0.00000000E+00  0.00000000E+00  0.00000000E+00
  0.00000000E+00  0.00000000E+00  0.00000000E+00
  0.00000000E+00  0.00000000E+00  0.00000000E+00
  0.00000000E+00  0.00000000E+00  0.00000000E+00
  0.00000000E+00  0.00000000E+00  0.00000000E+00
  0.00000000E+00  0.00000000E+00  0.00000000E+00
  0.00000000E+00  0.00000000E+00  0.00000000E+00
  0.00000000E+00  0.00000000E+00  0.00000000E+00
  0.00000000E+00  0.00000000E+00  0.00000000E+00
  0.00000000E+00  0.00000000E+00  0.00000000E+00
  0.00000000E+00  0.00000000E+00  0.00000000E+00
  0.00000000E+00  0.00000000E+00  0.00000000E+00
  0.00000000E+00  0.00000000E+00  0.00000000E+00
  0.00000000E+00  0.00000000E+00  0.00000000E+00
