Ca2 Fe4 S6 O24                          
   1.00000000000000     
     7.6477979999999999    0.0244570000000000    4.4353800000000003
     2.5509249999999999    7.0840009999999998    4.4198329999999997
     0.0588570000000000    0.0044530000000000    8.8192550000000001
   Ca   Fe   S    O 
     2     4     6    24
Direct
  0.2530523579758724  0.7997761857065294  0.5643283162858417
  0.9711834529651401  0.0242553877853303  0.9943203432256220
  0.6651694581021232  0.6160989977397607  0.6550660278683760
  0.1521872787828702  0.1465554320294793  0.1352232101487550
  0.8165520928577742  0.8556840907660862  0.8540999658933818
  0.3602643589164772  0.3674841814060493  0.3529677135063012
  0.9723415089121248  0.2367710075652840  0.5412290946244582
  0.4406517487817574  0.0438526543101706  0.7534388725191530
  0.5512359509810060  0.9574158879415976  0.2468330697322020
  0.7529176138037740  0.4433883821331471  0.0401025335027892
  0.2518148584748404  0.5492984590318503  0.9590673007558891
  0.0322183865839080  0.7501627640637433  0.4412513326720471
  0.4162870210552088  0.5562390776438925  0.7833992029129810
  0.8876101082545546  0.2575852285358926  0.1122064732745847
  0.7996680814009098  0.3942032467825850  0.5397437295747555
  0.0627045828448955  0.8967079187881867  0.2548555580522353
  0.5560730809692269  0.8042736830780596  0.4286296107405939
  0.2477926082812169  0.0872573602761164  0.8950466480738422
  0.7310462527012720  0.9041612796548687  0.1000086987519062
  0.2152647468356649  0.6051703898587446  0.4550804634038011
  0.1036839757518435  0.7360272183326809  0.9039481370150272
  0.4445240373005136  0.2016288175050658  0.5784070193474449
  0.9404652953550333  0.0741389570202855  0.7227952989022161
  0.5763039984606806  0.4797078765932646  0.1888921852584915
  0.0415145101638511  0.1588490218254997  0.3954082147388412
  0.4824061811577858  0.8684585495203804  0.7342928146548084
  0.3948054731496585  0.9665132147445350  0.2198673863295584
  0.7370703640082693  0.4260865362040947  0.8898948796379140
  0.1972652086982238  0.3967829342894815  0.0047230033960094
  0.9040842482868495  0.6747631213240914  0.4692231137056218
  0.1196806330109487  0.2777768907102292  0.5295017718961348
  0.5678436873349897  0.0246422655442783  0.8265142714612400
  0.5276640385559977  0.1342027554814940  0.2474844099875234
  0.8311218783041788  0.5907348491549944  0.9628250547111719
  0.2823383025806729  0.5394100908054817  0.1109566000977910
  0.9604228740232073  0.8347639059719304  0.5836199704443398
 
             NaN             NaN             NaN
             NaN             NaN             NaN
             NaN             NaN             NaN
             NaN             NaN             NaN
             NaN             NaN             NaN
             NaN             NaN             NaN
             NaN             NaN             NaN
             NaN             NaN             NaN
             NaN             NaN             NaN
             NaN             NaN             NaN
             NaN             NaN             NaN
             NaN             NaN             NaN
             NaN             NaN             NaN
             NaN             NaN             NaN
             NaN             NaN             NaN
             NaN             NaN             NaN
             NaN             NaN             NaN
             NaN             NaN             NaN
             NaN             NaN             NaN
             NaN             NaN             NaN
             NaN             NaN             NaN
             NaN             NaN             NaN
             NaN             NaN             NaN
             NaN             NaN             NaN
             NaN             NaN             NaN
             NaN             NaN             NaN
             NaN             NaN             NaN
             NaN             NaN             NaN
             NaN             NaN             NaN
             NaN             NaN             NaN
             NaN             NaN             NaN
             NaN             NaN             NaN
             NaN             NaN             NaN
             NaN             NaN             NaN
             NaN             NaN             NaN
             NaN             NaN             NaN
