Ca2 Fe4 S6 O24                          
   1.00000000000000     
     7.6477979999999999    0.0244570000000000    4.4353800000000003
     2.5509249999999999    7.0840009999999998    4.4198329999999997
     0.0588570000000000    0.0044530000000000    8.8192550000000001
   Ca   Fe   S    O 
     2     4     6    24
Direct
  0.2533755538270681  0.8062046483279333  0.5666993483132025
  0.9764962409744296  0.0147885653192959 -0.0042385328925072
  0.6609786915084610  0.6231847267922591  0.6540864347546766
  0.1489974021405479  0.1461337875895313  0.1369531531186250
  0.8193892573470313  0.8523904755277972  0.8537064069451390
  0.3614916162234605  0.3686968568850733  0.3509025850531751
  0.9708973372900493  0.2385975626001244  0.5398683403183486
  0.4361930669887767  0.0451014171059897  0.7514637576503431
  0.5522747044808169  0.9577746359804742  0.2474659400262146
  0.7525501218570676  0.4435143753421297  0.0415202804072464
  0.2534802737366984  0.5472250587663943  0.9587308202081479
  0.0360379796056580  0.7488154739838225  0.4419350169493458
  0.4151814668219467  0.5580588556908737  0.7811000961036630
  0.8882316076035986  0.2543296283453458  0.1055340985404642
  0.7971762704386787  0.3935972385479214  0.5524481560756499
  0.0647691397584488  0.8971188654247039  0.2558600745359325
  0.5635370360192287  0.7956878632232961  0.4229165013257071
  0.2456762330616707  0.0866285035137426  0.8968827103317656
  0.7273795568208127  0.9118612427003954  0.0939178716865858
  0.2192192763273437  0.6046804686420943  0.4542663792722318
  0.1014464014720168  0.7320423676358988  0.9072437237954009
  0.4399430166239461  0.2088545723595880  0.5821253764088536
  0.9498801848117233  0.0694166551811321  0.7187145541791391
  0.5792028260955612  0.4759057757643921  0.1939740439363765
  1.0243311009598410  0.1698079056584000  0.3922623517393772
  0.4688037452580273  0.8779419323896119  0.7230427775852142
  0.3900210478607639  0.9737252771124748  0.2242882622266148
  0.7291891341193362  0.4393436422434037  0.8890222143607905
  0.2025006872630387  0.3919392287757766  1.0059643086415637
  0.9070979195789077  0.6740838324179071  0.4697775866549241
  0.1254491763247070  0.2757297373787133  0.5184334295485317
  0.5692888099301194  1.0100780335535795  0.8268103993879532
  0.5314543323643616  0.1281673116910241  0.2580664446145086
  0.8348372362368554  0.5867673714025107  0.9704618848473124
  0.2856280407861458  0.5401082346967822  0.1080242973036555
 -0.0350035864358882  0.8322459043854048  0.5849555060527434
 
             NaN             NaN             NaN
             NaN             NaN             NaN
             NaN             NaN             NaN
             NaN             NaN             NaN
             NaN             NaN             NaN
             NaN             NaN             NaN
             NaN             NaN             NaN
             NaN             NaN             NaN
             NaN             NaN             NaN
             NaN             NaN             NaN
             NaN             NaN             NaN
             NaN             NaN             NaN
             NaN             NaN             NaN
             NaN             NaN             NaN
             NaN             NaN             NaN
             NaN             NaN             NaN
             NaN             NaN             NaN
             NaN             NaN             NaN
             NaN             NaN             NaN
             NaN             NaN             NaN
             NaN             NaN             NaN
             NaN             NaN             NaN
             NaN             NaN             NaN
             NaN             NaN             NaN
             NaN             NaN             NaN
             NaN             NaN             NaN
             NaN             NaN             NaN
             NaN             NaN             NaN
             NaN             NaN             NaN
             NaN             NaN             NaN
             NaN             NaN             NaN
             NaN             NaN             NaN
             NaN             NaN             NaN
             NaN             NaN             NaN
             NaN             NaN             NaN
             NaN             NaN             NaN
