Ca2 Mn4 S6 O24                          
   1.00000000000000     
     7.7727009999999996    0.1282210000000000    4.4737609999999997
     2.6726540000000001    7.2991840000000003    4.4869729999999999
     0.1256130000000000    0.1062890000000000    8.8900989999999993
   Ca   Mn   S    O 
     2     4     6    24
Direct
  0.3490411697996715  0.6887648830750275  0.5137017774564714
  0.9901327937588759  1.0202950787634841 -0.0194851215940350
  0.6544193775980004  0.6281197299994776  0.6667571841854374
  0.1502932592036933  0.1566449293731288  0.1410605481581402
  0.8370433812387231  0.8529341425395534  0.8414787885876659
  0.3542117909782630  0.3543792706172733  0.3539385911556636
  0.9581276411377719  0.2500846432525719  0.5470335249169174
  0.4355955710767819  0.0378194944752534  0.7534706953239565
  0.5534437612163877  0.9559147670253250  0.2430957113321451
  0.7475586498928062  0.4439630336655401  0.0554095460817170
  0.2460182766301746  0.5567644316488694  0.9549725577284404
  0.0377535562931922  0.7565532788825884  0.4384819817587418
  0.4131408707189028  0.5525362393642174  0.7830334984966937
  0.8929781900233400  0.2583641493220881  0.0987675199027707
  0.7911884485818227  0.4147360173967252  0.5441318756579647
  0.0623082014511688  0.9013513322744201  0.2549385856113351
  0.5775439940730754  0.7939608347438446  0.4124706091483055
  0.2503937403845266  0.0852407342667954  0.8989218384317562
  0.7277995210767249  0.9265550863528234  0.0872563218257890
  0.2134686893985725  0.5952800649237888  0.4336148135397685
  0.1015366085902803  0.7397549050854908  0.9003307200077934
  0.4448594678110355  0.2018626471135779  0.5871220239112455
  0.9165741377095794  0.0979429841671023  0.7279724093382298
  0.5833589068656809  0.4581537553165370  0.2213390060987288
  0.0182833257712605  0.1863933166837856  0.3971334393290663
  0.4530878806682624  0.8851630294233578  0.7192914622763112
  0.4002825873646594  0.9572327239836190  0.2189675184805865
  0.7065818076311813  0.4524267277053698  0.9098637736351305
  0.1912700585216759  0.4068641747359720  1.0042497067053400
  0.8847264759907968  0.7070870375111477  0.4919162294836465
  0.1075011035270683  0.2831836830686468  0.5375406197038938
  0.5777396849374529  0.9810636755940892  0.8259664179971290
  0.5087730031898174  0.1266042695276412  0.2617484169379309
  0.8196484176796796  0.5883556896116263 -0.0126475387470067
  0.2819949397119993  0.5443600224292380  0.1031539944404797
  0.0169411681043287  0.8204569118341299  0.5750075499776308
 
             NaN             NaN             NaN
             NaN             NaN             NaN
             NaN             NaN             NaN
             NaN             NaN             NaN
             NaN             NaN             NaN
             NaN             NaN             NaN
             NaN             NaN             NaN
             NaN             NaN             NaN
             NaN             NaN             NaN
             NaN             NaN             NaN
             NaN             NaN             NaN
             NaN             NaN             NaN
             NaN             NaN             NaN
             NaN             NaN             NaN
             NaN             NaN             NaN
             NaN             NaN             NaN
             NaN             NaN             NaN
             NaN             NaN             NaN
             NaN             NaN             NaN
             NaN             NaN             NaN
             NaN             NaN             NaN
             NaN             NaN             NaN
             NaN             NaN             NaN
             NaN             NaN             NaN
             NaN             NaN             NaN
             NaN             NaN             NaN
             NaN             NaN             NaN
             NaN             NaN             NaN
             NaN             NaN             NaN
             NaN             NaN             NaN
             NaN             NaN             NaN
             NaN             NaN             NaN
             NaN             NaN             NaN
             NaN             NaN             NaN
             NaN             NaN             NaN
             NaN             NaN             NaN
