Ca2 Mn4 S6 O24
1.0
7.772701 0.128221 4.473761
2.672654 7.299184 4.486973
0.125613 0.106289 8.890099
Ca Mn S O
2 4 6 24
direct
0.372618 0.683621 0.537974 Ca
0.986777 0.997783 1.008048 Ca
0.651306 0.639334 0.647658 Mn
0.145658 0.157641 0.139679 Mn
0.833388 0.842738 0.850425 Mn
0.356319 0.355645 0.349311 Mn
0.958533 0.248995 0.546011 S
0.432883 0.039616 0.750108 S
0.552712 0.954676 0.242359 S
0.748278 0.444485 0.049432 S
0.248373 0.552987 0.947537 S
0.045733 0.750325 0.448765 S
0.401036 0.571098 0.766254 O
0.898001 0.260053 0.076492 O
0.781642 0.402901 0.559652 O
0.067515 0.902519 0.267542 O
0.569638 0.778709 0.401042 O
0.253289 0.069900 0.903018 O
0.726486 0.929451 0.083663 O
0.219734 0.592282 0.438547 O
0.092450 0.734584 0.921064 O
0.433177 0.213541 0.595557 O
0.942949 0.091877 0.727126 O
0.591015 0.439163 0.223072 O
1.002898 0.182106 0.403799 O
0.451037 0.902068 0.694029 O
0.396181 0.994212 0.200218 O
0.697989 0.478621 0.899320 O
0.194517 0.405259 0.989415 O
0.892382 0.704910 0.489702 O
0.107494 0.299777 0.508382 O
0.581026 -0.026316 0.815982 O
0.527766 0.102722 0.286269 O
0.816015 0.583181 0.005630 O
0.299830 0.523841 0.093504 O
0.010828 0.811099 0.593310 O
