Ni6 P3                                  
   1.00000000000000     
     5.7525878193882081   -0.0002766855351550    0.0000000074154478
    -2.8765334888190823    4.9815239990368267   -0.0000000007687248
    -0.0000000010412930    0.0000000024270908    3.2960915888247975
   Ni   P 
     6     3
Direct
  0.7421938702000759  0.7421911688534024  0.0000000045401549
  0.2578876499780023  0.0001217889852043  0.0000000001710418
  0.0001225041461197  0.2578935786113661  0.0000000015400872
  0.4026450784906572  0.4026485063974263  0.4999999845189933
  0.5972216299522088  0.9998347250795092  0.4999999772361221
  0.9998328112935653  0.5972192666406357  0.4999999772990265
  0.6667139612957982  0.3333500261815630  0.9999999900906360
  0.3333616432161648  0.6667159412734875  0.9999999883458983
  0.0000208514274149  0.0000249979773983  0.5000000762580399
 
  0.00000000E+00  0.00000000E+00  0.00000000E+00
  0.00000000E+00  0.00000000E+00  0.00000000E+00
  0.00000000E+00  0.00000000E+00  0.00000000E+00
  0.00000000E+00  0.00000000E+00  0.00000000E+00
  0.00000000E+00  0.00000000E+00  0.00000000E+00
  0.00000000E+00  0.00000000E+00  0.00000000E+00
  0.00000000E+00  0.00000000E+00  0.00000000E+00
  0.00000000E+00  0.00000000E+00  0.00000000E+00
  0.00000000E+00  0.00000000E+00  0.00000000E+00
