Ni6 P3
1.0
5.859000 0.000000 0.000000
-2.929500 5.074043 0.000000
0.000000 0.000000 3.382000
Ni P
6 3
direct
0.742500 0.742500 0.000000 Ni0+
0.257500 0.000000 0.000000 Ni0+
0.000000 0.257500 0.000000 Ni0+
0.404300 0.404300 0.500000 Ni0+
0.595700 0.000000 0.500000 Ni0+
0.000000 0.595700 0.500000 Ni0+
0.666667 0.333333 0.000000 P0+
0.333333 0.666667 0.000000 P0+
0.000000 0.000000 0.500000 P0+
