Ca2 Ni4 S6 O24                          
   1.00000000000000     
     7.5289560000000000    0.1556160000000000    4.4617870000000002
     2.6126749999999999    7.0463370000000003    4.4465560000000002
     0.1524600000000000    0.1480570000000000    8.7529620000000001
   Ca   Ni   S    O 
     2     4     6    24
Direct
  0.3301586111222060  0.6912485580108552  0.5425428422314084
  0.9812732778172552  0.0415109007300542 -0.0243933764079479
  0.6568481864218314  0.6292648832485831  0.6636850374240300
  0.1511168950107930  0.1445455475854733  0.1431369952695784
  0.8378319113406784  0.8589247636285987  0.8475537528019828
  0.3511038122563114  0.3530985247127693  0.3507204542900562
  0.9555286329290490  0.2516102121362465  0.5408237609913434
  0.4531847597577300  0.0339305854404932  0.7549556688580524
  0.5457208126435356  0.9651888485932982  0.2430513527683511
  0.7498279372834834  0.4481119501697547  0.0439617188846494
  0.2445184163230438  0.5468563845589369  0.9626061659021792
  0.0349747096247786  0.7520795413381932  0.4424377734634768
  0.4334404112654782  0.5303349563722795  0.8033470048061132
  0.8875342050654318  0.2572070764152677  0.1215668799028657
  0.7927828025280876  0.4338272016939535  0.5259469990450619
  0.0877648293156443  0.8938399506022547  0.2497022798150097
  0.5385064319574813  0.8327737859624965  0.4412849297296839
  0.2532428208415449  0.1070326415098367  0.8857623034800468
  0.7373453053866251  0.8955538289470470  0.1075382929787209
  0.2066214303556952  0.5727106388613250  0.4604356078515744
  0.1119882954967881  0.7413586192476379  0.8750039179537410
  0.4718887454951861  0.1687209432481738  0.5593156786800761
  0.8963773709826421  0.1051737613050517  0.7332809114034671
  0.5608243167956866  0.4752309348222349  0.1916921709526511
  1.0127034527250260  0.1807401860781523  0.3951868125699680
  0.4822951532518349  0.8421265907204888  0.7775479209003711
  0.3950596267626587  0.9545786980451179  0.2205843767656240
  0.7559805835876927  0.4306755011995193  0.8802210533722564
  0.1888472163809685  0.3973550649167830  1.0013824255782675
  0.8739025481329453  0.7225702441161324  0.4718019670247542
  0.1183290802644064  0.2660335384920214  0.5363549215234914
  0.5853186130718303  1.0241666806671381  0.8162627879884482
  0.5109471752381657  0.1592422370611334  0.2141651812331241
  0.8137924870128209  0.6011396331869914 -0.0190813850283138
  0.2440718209014505  0.5467192646148820  0.1281045044998343
 -0.0013930780645647  0.8202890715593396  0.5854747505947235
 
             NaN             NaN             NaN
             NaN             NaN             NaN
             NaN             NaN             NaN
             NaN             NaN             NaN
             NaN             NaN             NaN
             NaN             NaN             NaN
             NaN             NaN             NaN
             NaN             NaN             NaN
             NaN             NaN             NaN
             NaN             NaN             NaN
             NaN             NaN             NaN
             NaN             NaN             NaN
             NaN             NaN             NaN
             NaN             NaN             NaN
             NaN             NaN             NaN
             NaN             NaN             NaN
             NaN             NaN             NaN
             NaN             NaN             NaN
             NaN             NaN             NaN
             NaN             NaN             NaN
             NaN             NaN             NaN
             NaN             NaN             NaN
             NaN             NaN             NaN
             NaN             NaN             NaN
             NaN             NaN             NaN
             NaN             NaN             NaN
             NaN             NaN             NaN
             NaN             NaN             NaN
             NaN             NaN             NaN
             NaN             NaN             NaN
             NaN             NaN             NaN
             NaN             NaN             NaN
             NaN             NaN             NaN
             NaN             NaN             NaN
             NaN             NaN             NaN
             NaN             NaN             NaN
