Ca2 Ni4 S6 O24
1.0
7.528956 0.155616 4.461787
2.612675 7.046337 4.446556
0.152460 0.148057 8.752962
Ca Ni S O
2 4 6 24
direct
0.375960 0.682279 0.542220 Ca
0.979418 1.006529 1.008626 Ca
0.649354 0.646373 0.648717 Ni
0.141073 0.149280 0.143710 Ni
0.843416 0.847505 0.846856 Ni
0.357757 0.348281 0.349131 Ni
0.961370 0.249141 0.537073 S
0.441477 0.040768 0.749855 S
0.550729 0.957992 0.240608 S
0.744278 0.453506 0.046800 S
0.249907 0.540457 0.954398 S
0.038496 0.748661 0.453425 S
0.415348 0.559658 0.773487 O
0.893548 0.261044 0.092078 O
0.805501 0.427063 0.544991 O
0.085386 0.896514 0.264367 O
0.568321 0.781118 0.410154 O
0.252126 0.083820 0.900815 O
0.727611 0.921499 0.079778 O
0.193090 0.568097 0.452795 O
0.089734 0.731196 0.921729 O
0.446076 0.211634 0.578775 O
0.922923 0.093385 0.725844 O
0.570240 0.457382 0.214114 O
0.980447 0.200217 0.391889 O
0.457387 0.886090 0.713312 O
0.384030 0.995998 0.210802 O
0.716053 0.473547 0.886500 O
0.199954 0.390868 0.984705 O
0.863987 0.743876 0.485032 O
0.137364 0.253629 0.506681 O
0.589513 -0.013184 0.815425 O
0.538700 0.115075 0.266458 O
0.809039 0.596647 0.006600 O
0.286943 0.512416 0.111540 O
0.020890 0.797001 0.600557 O
