Ca4 V16 P24 O96                         
   1.00000000000000     
    -4.5738799999999999    6.9486660000000002    8.6833980000000004
     5.0915419999999996   -6.6250609999999996    8.7189969999999999
     9.7910210000000006    6.9541279999999999    0.2953740000000000
   Ca   V    P    O 
     4    16    24    96
Direct
  0.5182336235698707  0.6625110155977213  0.4134728422781426
  0.5007913328931208  0.9937678739168049  0.9970235084032616
  0.9988920745806704  0.9975559668637854  0.4972211006061739
  0.0073611332712691  0.4879471348000896  0.9972297112930780
  0.6439800460549496  0.6366385826737768  0.6475907274916493
  0.6431304356627222  0.1434753152632116  0.1454779880239367
  0.1444979403002509  0.1477282560229935  0.6426289760100763
  0.1431870713931748  0.6424875457654253  0.1424624132430238
  0.1394913338926974  0.1433999510812657  0.1402801732751318
  0.1366535096976516  0.6424953121130603  0.6420113110091794
  0.6450598294010192  0.6421247463004878  0.1344801881986735
  0.6375284402074134  0.1415684469052663  0.6416390572242345
  0.8490644831328461  0.8543982427467245  0.8563534583927985
  0.8573398561099382  0.3488441508745065  0.3565184648975842
  0.3517689315473588  0.3549916247317400  0.8559048125833216
  0.3501721058812609  0.8634406407697993  0.3464228173054598
  0.3571406750333408  0.3585317031288149  0.3571439973147065
  0.3457554672538557  0.8535229777912965  0.8519677571631932
  0.8532012723233734  0.8479586603356771  0.3542719146947386
  0.8500505357025016  0.3491324222597084  0.8553402641903871
  0.3855985185255710  0.7425500294701792  0.6106453132632464
  0.3897787603585623  0.2473463568656432  0.1072450758208211
  0.8858075399400276  0.2417150521837857  0.6072694690409608
  0.8910912123687513  0.7452437368421502  0.1026465599263559
  0.3852563294368526  0.6053860768336010  0.2393114022608096
  0.3886335084332765  0.1077628290566778  0.7531450511435465
  0.8908726061480586  0.1039669672021535  0.2526606058690500
  0.8893884413293635  0.6061390498652881  0.7567133397780739
  0.6075142448312842  0.3865985890516289  0.7475251578131870
  0.6083397591584793  0.8849643972983907  0.2402004260883650
  0.1013694187489865  0.8905431826939740  0.7419898186710591
  0.1067879946889491  0.3880459122788621  0.2449052106320285
  0.2467927679676249  0.3915436320164195  0.6056144986399518
  0.2470992112534548  0.8943512551911887  0.1036290283866078
  0.7409828946131130  0.8861272856301042  0.6046248035667972
  0.7525977476481377  0.3874082524928887  0.1098820024844558
  0.7569010795291276  0.6028619408935704  0.3905136051100574
  0.7445296921801222  0.1035140763224669  0.8900590477740239
  0.2457593035079835  0.1097269630616683  0.3904753487799963
  0.2442062848626049  0.6055762383070047  0.8876980541398123
  0.6072908184276241  0.2529072918899913  0.3893579171198487
  0.6038964909469492  0.7537874312096955  0.8933630496161812
  0.1094630124838494  0.7514239179266141  0.3900623715423115
  0.1071408937377916  0.2506777353874513  0.8916375394519789
  0.6798768807345212  0.5853594745975650  0.4940684166031811
  0.6769602160509804  0.0793830778265696  1.0003224432931466
  0.1763071649647474  0.0809563780758338  0.4967700080940021
  0.1757546465902299  0.5815188113726196  0.9973001595783413
  0.1625326556404012  0.4852358895553401  0.6267716171532571
  0.1615440536175686  0.9866998038189793  0.1249625620545863
  0.6597787932139882  0.9836456398862371  0.6207437135655486
  0.6734645522313050  0.4847442616662885  0.1353644272264933
  0.4916042179474259  0.6677388618218946  0.5980411106905666
  0.4936199660718979  0.1731405369406060  0.0805379070295114
  0.9936707209959417  0.1748383879338593  0.5803072272406498
  0.9966857834328644  0.6739695888663833  0.0778759101206688
  0.6255122492379650  0.1686880901592483  0.4842299955698964
  0.6207393367383029  0.6605274404482026  0.9826513369174251
  0.1306337426145424  0.6655758365557221  0.4825824653753230
  0.1297770650336288  0.1637506582108207  0.9836557858782722
  0.5929749937761616  0.5004464473878000  0.6869851499550901
  0.5773307241716856  0.9958336921772057  0.1813255932988650
  0.0792164891101693  0.0014964212870346  0.6774424684088759
  0.0790355099502702  0.4988801636856611  0.1809767237955033
  0.4920633933828308  0.6309917332896705  0.1706446622360485
  0.4874653527124594  0.1330587912764178  0.6709217831961571
  0.9887651286641633  0.1282660701703861  0.1705837986551036
  0.9874159201436701  0.6326900330294609  0.6736879336666852
  0.5092929836494898  0.3664789171269544  0.8258710732526299
  0.5144127136595672  0.8491667219283766  0.3236997873554890
  0.0057714101015047  0.8660460082966741  0.8231773739324637
  0.0147754624946745  0.3625642314351612  0.3308190397546600
  0.4963903116415732  0.3178762821684119  0.4061421575140480
  0.4917788614785729  0.8167563925870162  0.9163163408462580
  0.0010348768475859  0.8190547821801857  0.4137808761054805
  0.9948842509064532  0.3131350880442081  0.9157035051995948
  0.8380724660607950  0.5081533084551138  0.3675819524194203
  0.8298196530696240  0.0103819204121569  0.8658339057728768
  0.3301775538535131  0.0082528059341063  0.3737665937066766
  0.3297306570508097  0.5122220889146354  0.8661584891368778
  0.4138437125895787  0.5084427803072838  0.3202204882440301
  0.4163816433507131  0.9991836575731707  0.8180516313515142
  0.9156852267947052  0.9937855921120209  0.3176915888545002
  0.9180642900045335  0.4973530550808271  0.8211709080431625
  0.3804173694831454  0.8088965219703800  0.4999863094918578
  0.3692342313833185  0.3281261685093865  0.0065853523569125
  0.8641718462880781  0.3244290737410515  0.5086434730680576
  0.8729160247194575  0.8318678236930261  0.0084342765182787
  0.3160546690441243  0.4145626965818026  0.4994104903958256
  0.3151615490926751  0.9203738855097736  0.9950802194503534
  0.8214931286835847  0.9101936389599997  0.5036587500812717
  0.8241592364567656  0.4133885114766623  0.0039342970329367
  0.2904909927529566  0.6638551136931110  0.6285842072009072
  0.2942286105529852  0.1672511770673535  0.1236254281541851
  0.7952581455801870  0.1566944504607910  0.6212721973678506
  0.7981682255875853  0.6617969756636333  0.1118896424487450
  0.7901846268600019  0.5945704835074259  0.6844201752620709
  0.7877658667430930  0.0954031355456199  0.1858078372049539
  0.2876537137291739  0.0963008429007491  0.6825722834831296
  0.2894957352635887  0.5851877622923802  0.1678921937797321
  0.6284839341532343  0.3013131010026014  0.6599110342665360
  0.6273517876893737  0.8025019673020178  0.1480101883756774
  0.1187427957960275  0.8051157401013004  0.6525273092129797
  0.1168165582171686  0.3043117741440919  0.1528001406835727
  0.6789729033539802  0.7810144811025427  0.5852640037476686
  0.6849413681336437  0.2856542484068064  0.0950727613044920
  0.1813871741573603  0.2852037688080918  0.5916034024612477
  0.1896704721055550  0.7855303865256452  0.0963969852452429
  0.6734807540814699  0.6305315634160777  0.2985275226622717
  0.6580273545071774  0.1183394839686559  0.8014660780754586
  0.1629530851266812  0.1205015622167079  0.2991377570649813
  0.1558095972374237  0.6209570284624358  0.8013621053969161
  0.6034602696008622  0.6991323987037189  0.7829885490576146
  0.5979901327696084  0.1857114388812192  0.2828732895487026
  0.0989567747241835  0.1901098427196659  0.7839009595717746
  0.1025953225990802  0.6875832155243494  0.2822072029720780
  0.4045296955894200  0.3145555802162342  0.2077748181802062
  0.3944383526800248  0.8180560176330104  0.7065369095688873
  0.9007016423821040  0.8048424593591210  0.2101523290513114
  0.8961125080670950  0.3081054465843714  0.7102178115726178
  0.3582048556867746  0.7027463777106402  0.3156490530997874
  0.3697540534380558  0.1953826122534746  0.8388700852712374
  0.8773231889127400  0.1894936647288398  0.3416013496475943
  0.8682201509639574  0.6938447329295374  0.8423496401091961
  0.2157511832832507  0.3958840766855077  0.3052758917074206
  0.2069596158867664  0.9005307342058844  0.8090656484768752
  0.7110684320974148  0.8940869003854346  0.3097954964812858
  0.7113970228290962  0.3959996347055588  0.8181900520864624
  0.8160650053796540  0.8651525129363689  0.7043848675908317
  0.8377399670619475  0.3656167677824693  0.2015633775281555
  0.3250794546030202  0.3688887821257462  0.7019111448222766
  0.3378006919258016  0.8878649107905823  0.1909740129761145
  0.3129868822867802  0.2099971232724543  0.4013171616301888
  0.3067816957028485  0.7114721255532733  0.8992509103774303
  0.8225929667818339  0.7076409942466674  0.4054576443784270
  0.8083415691761486  0.2079960105210389  0.9033824148342465
  0.6967796786581619  0.3363755366900101  0.3709900246498714
  0.6897020031861186  0.8430003424573800  0.8943058199020864
  0.1955070492300184  0.8403178346367829  0.3734414809613935
  0.1903727435857036  0.3426750973385549  0.8828557315628178
 
             NaN             NaN             NaN
             NaN             NaN             NaN
             NaN             NaN             NaN
             NaN             NaN             NaN
             NaN             NaN             NaN
             NaN             NaN             NaN
             NaN             NaN             NaN
             NaN             NaN             NaN
             NaN             NaN             NaN
             NaN             NaN             NaN
             NaN             NaN             NaN
             NaN             NaN             NaN
             NaN             NaN             NaN
             NaN             NaN             NaN
             NaN             NaN             NaN
             NaN             NaN             NaN
             NaN             NaN             NaN
             NaN             NaN             NaN
             NaN             NaN             NaN
             NaN             NaN             NaN
             NaN             NaN             NaN
             NaN             NaN             NaN
             NaN             NaN             NaN
             NaN             NaN             NaN
             NaN             NaN             NaN
             NaN             NaN             NaN
             NaN             NaN             NaN
             NaN             NaN             NaN
             NaN             NaN             NaN
             NaN             NaN             NaN
             NaN             NaN             NaN
             NaN             NaN             NaN
             NaN             NaN             NaN
             NaN             NaN             NaN
             NaN             NaN             NaN
             NaN             NaN             NaN
             NaN             NaN             NaN
             NaN             NaN             NaN
             NaN             NaN             NaN
             NaN             NaN             NaN
             NaN             NaN             NaN
             NaN             NaN             NaN
             NaN             NaN             NaN
             NaN             NaN             NaN
             NaN             NaN             NaN
             NaN             NaN             NaN
             NaN             NaN             NaN
             NaN             NaN             NaN
             NaN             NaN             NaN
             NaN             NaN             NaN
             NaN             NaN             NaN
             NaN             NaN             NaN
             NaN             NaN             NaN
             NaN             NaN             NaN
             NaN             NaN             NaN
             NaN             NaN             NaN
             NaN             NaN             NaN
             NaN             NaN             NaN
             NaN             NaN             NaN
             NaN             NaN             NaN
             NaN             NaN             NaN
             NaN             NaN             NaN
             NaN             NaN             NaN
             NaN             NaN             NaN
             NaN             NaN             NaN
             NaN             NaN             NaN
             NaN             NaN             NaN
             NaN             NaN             NaN
             NaN             NaN             NaN
             NaN             NaN             NaN
             NaN             NaN             NaN
             NaN             NaN             NaN
             NaN             NaN             NaN
             NaN             NaN             NaN
             NaN             NaN             NaN
             NaN             NaN             NaN
             NaN             NaN             NaN
             NaN             NaN             NaN
             NaN             NaN             NaN
             NaN             NaN             NaN
             NaN             NaN             NaN
             NaN             NaN             NaN
             NaN             NaN             NaN
             NaN             NaN             NaN
             NaN             NaN             NaN
             NaN             NaN             NaN
             NaN             NaN             NaN
             NaN             NaN             NaN
             NaN             NaN             NaN
             NaN             NaN             NaN
             NaN             NaN             NaN
             NaN             NaN             NaN
             NaN             NaN             NaN
             NaN             NaN             NaN
             NaN             NaN             NaN
             NaN             NaN             NaN
             NaN             NaN             NaN
             NaN             NaN             NaN
             NaN             NaN             NaN
             NaN             NaN             NaN
             NaN             NaN             NaN
             NaN             NaN             NaN
             NaN             NaN             NaN
             NaN             NaN             NaN
             NaN             NaN             NaN
             NaN             NaN             NaN
             NaN             NaN             NaN
             NaN             NaN             NaN
             NaN             NaN             NaN
             NaN             NaN             NaN
             NaN             NaN             NaN
             NaN             NaN             NaN
             NaN             NaN             NaN
             NaN             NaN             NaN
             NaN             NaN             NaN
             NaN             NaN             NaN
             NaN             NaN             NaN
             NaN             NaN             NaN
             NaN             NaN             NaN
             NaN             NaN             NaN
             NaN             NaN             NaN
             NaN             NaN             NaN
             NaN             NaN             NaN
             NaN             NaN             NaN
             NaN             NaN             NaN
             NaN             NaN             NaN
             NaN             NaN             NaN
             NaN             NaN             NaN
             NaN             NaN             NaN
             NaN             NaN             NaN
             NaN             NaN             NaN
             NaN             NaN             NaN
             NaN             NaN             NaN
             NaN             NaN             NaN
             NaN             NaN             NaN
             NaN             NaN             NaN
             NaN             NaN             NaN
             NaN             NaN             NaN
             NaN             NaN             NaN
             NaN             NaN             NaN
