Ca4 V16 P24 O96
1.0
-4.573880 6.948666 8.683398
5.091542 -6.625061 8.718997
9.791021 6.954128 0.295374
Ca V P O
4 16 24 96
direct
0.541776 0.647604 0.455056 Ca
0.505460 0.997109 0.988699 Ca
0.997531 -0.000983 0.495666 Ca
0.011289 0.487978 0.995760 Ca
0.642495 0.635548 0.648099 V
0.643887 0.146594 0.141642 V
0.143451 0.145956 0.642795 V
0.142998 0.646433 0.143274 V
0.138685 0.144551 0.140319 V
0.137089 0.642149 0.641608 V
0.639061 0.641960 0.137826 V
0.637587 0.141465 0.640719 V
0.852092 0.854309 0.855694 V
0.855311 0.350415 0.355366 V
0.352077 0.354160 0.855714 V
0.349556 0.859345 0.351866 V
0.354632 0.354755 0.355692 V
0.347311 0.851276 0.853167 V
0.853934 0.848188 0.351439 V
0.850908 0.351261 0.852990 V
0.386440 0.742671 0.607064 P
0.388658 0.245876 0.106555 P
0.886017 0.243280 0.606153 P
0.889837 0.744853 0.103637 P
0.392249 0.607535 0.252376 P
0.388338 0.106842 0.751898 P
0.890342 0.105511 0.251754 P
0.889506 0.606581 0.756224 P
0.606500 0.385900 0.747488 P
0.604830 0.891256 0.237681 P
0.103361 0.889652 0.742046 P
0.106207 0.388843 0.244355 P
0.247986 0.390049 0.606608 P
0.245291 0.891348 0.104441 P
0.744192 0.887178 0.604811 P
0.752201 0.389140 0.107119 P
0.750498 0.601847 0.388580 P
0.746793 0.104409 0.886891 P
0.242229 0.108523 0.388891 P
0.247366 0.604770 0.889060 P
0.606658 0.250048 0.388913 P
0.606325 0.753703 0.892379 P
0.105123 0.746873 0.392283 P
0.107199 0.250678 0.890790 P
0.682040 0.584038 0.497767 O
0.680072 0.081949 0.997295 O
0.174564 0.080238 0.496928 O
0.181072 0.579158 0.999083 O
0.165785 0.484888 0.629795 O
0.164023 0.986698 0.127373 O
0.663388 0.984497 0.624088 O
0.672965 0.485981 0.131007 O
0.492660 0.670428 0.588430 O
0.493432 0.174170 0.077643 O
0.993354 0.175361 0.579954 O
0.993188 0.670274 0.078287 O
0.626439 0.164370 0.482369 O
0.625398 0.662170 0.981189 O
0.118923 0.658379 0.483553 O
0.130689 0.164366 0.983099 O
0.584968 0.498163 0.684266 O
0.583961 0.999594 0.170932 O
0.079079 0.000132 0.677256 O
0.083374 0.499935 0.179953 O
0.490735 0.622953 0.167584 O
0.487388 0.132610 0.669952 O
0.988041 0.128267 0.168760 O
0.987710 0.632312 0.673940 O
0.510793 0.362968 0.828143 O
0.509329 0.876816 0.323601 O
0.008525 0.864954 0.824251 O
0.012696 0.365762 0.328972 O
0.495415 0.313734 0.409537 O
0.494624 0.817156 0.914655 O
0.000225 0.820448 0.414528 O
0.995274 0.313307 0.914780 O
0.833220 0.508323 0.364320 O
0.832195 0.011135 0.863708 O
0.323634 0.008710 0.366566 O
0.333102 0.511949 0.865132 O
0.411396 0.500004 0.318814 O
0.416008 0.997268 0.815478 O
0.913866 0.995145 0.316611 O
0.918525 0.497625 0.820308 O
0.379824 0.824400 0.506747 O
0.365806 0.327250 0.007014 O
0.864226 0.325511 0.507469 O
0.872517 0.829864 0.007301 O
0.318248 0.412755 0.500692 O
0.319039 0.917251 0.999715 O
0.821345 0.911753 0.501836 O
0.825869 0.414646 0.002491 O
0.290441 0.664795 0.616530 O
0.294070 0.165228 0.124806 O
0.795151 0.158790 0.621620 O
0.792695 0.668049 0.119333 O
0.788506 0.595598 0.686158 O
0.787395 0.098618 0.184616 O
0.287357 0.095999 0.681662 O
0.287515 0.606003 0.187134 O
0.627052 0.301555 0.658348 O
0.612509 0.802037 0.152230 O
0.120488 0.804079 0.652683 O
0.116212 0.304930 0.152235 O
0.679019 0.784386 0.584859 O
0.684714 0.287583 0.089923 O
0.181635 0.285127 0.592813 O
0.180015 0.787058 0.088666 O
0.662913 0.626657 0.301460 O
0.658306 0.117603 0.800125 O
0.156571 0.124378 0.300112 O
0.160864 0.622783 0.801162 O
0.603674 0.697742 0.781007 O
0.597627 0.186765 0.280420 O
0.098973 0.189045 0.783422 O
0.094107 0.689749 0.282213 O
0.403835 0.312029 0.207940 O
0.395096 0.808774 0.710291 O
0.904522 0.808629 0.207945 O
0.897586 0.310902 0.708166 O
0.388566 0.700001 0.334273 O
0.370209 0.193220 0.839121 O
0.877883 0.190845 0.340757 O
0.869312 0.693983 0.842039 O
0.214349 0.394492 0.306247 O
0.208978 0.900280 0.808814 O
0.709494 0.892021 0.306017 O
0.711596 0.399262 0.814565 O
0.821445 0.864726 0.702460 O
0.834635 0.365095 0.200768 O
0.328258 0.367205 0.701870 O
0.327882 0.869190 0.197616 O
0.309769 0.208793 0.401090 O
0.309494 0.711064 0.903078 O
0.815973 0.708206 0.399112 O
0.809774 0.209796 0.897979 O
0.694582 0.335836 0.373730 O
0.691677 0.843400 0.888819 O
0.198936 0.826940 0.383211 O
0.190277 0.342866 0.880406 O
