Cr12 P6
1.0
-0.000000 -0.000000 6.337100
3.304850 5.201150 -3.168550
-6.609700 -0.000000 -0.000000
Cr P
12 6
direct
0.381300 0.000000 0.000000 Cr0+
0.439200 0.000000 0.500000 Cr0+
0.056600 0.420800 0.210400 Cr0+
0.635800 0.579200 0.789600 Cr0+
0.977300 0.418400 0.709200 Cr0+
0.558900 0.581600 0.290800 Cr0+
0.741200 0.000000 0.794500 Cr0+
0.741200 0.000000 0.205500 Cr0+
0.003500 0.751000 0.586300 Cr0+
0.252500 0.249000 0.413700 Cr0+
0.003500 0.751000 0.164700 Cr0+
0.252500 0.249000 0.835300 Cr0+
0.027400 0.000000 0.000000 P0+
0.927400 0.000000 0.500000 P0+
0.666300 0.332600 0.398300 P0+
0.333700 0.667400 0.601700 P0+
0.666300 0.332600 0.934300 P0+
0.333700 0.667400 0.065700 P0+
