Ca1 Ni4 S6 O24                          
   1.00000000000000     
     7.4979050000000003    0.2831400000000000    4.3304939999999998
     2.7953999999999999    6.8428909999999998    4.6565740000000000
     0.6492019999999999    0.2752070000000000    8.7760940000000005
   Ca   Ni   S    O 
     1     4     6    24
Direct
  0.3842309835608478  0.6410842294364243  0.4949858848012522
  0.6447272037320438  0.6469619125576419  0.6485457745952316
  0.1462480721974031  0.1579354840824871  0.1456209079465441
  0.8449099565433089  0.8438429591802769  0.8449721052555492
  0.3577076626812702  0.3441802858846696  0.3627958904361804
  0.9674910790596314  0.2368561012208764  0.5264823639161322
  0.4397001223677334  0.0441046452336192  0.7637642821290967
  0.5603867375990400  0.9675685197414643  0.2351358773175680
  0.7375706628661199  0.4671288364474768  0.0535862330450650
  0.2441377973862534  0.5315575243865355  0.9604252509876580
  0.0251300987604551  0.7575650289397454  0.4533788793139909
  0.3935889341697798  0.6045666767547102  0.7650823417536639
  0.9385171769428619  0.3188257369832649  0.0202887414708489
  0.7722603542417008  0.3691314723548998  0.6131059395820773
  1.0031327573614282  0.9687245132398067  0.3396931763668440
  0.6255255002410919  0.7560401217519441  0.3771313037549631
  0.3027279609576160  0.0107108506945835  0.9741263824695732
  0.6936078417997164  0.9912065616655539  0.0320112913203385
  0.2279254878842167  0.6321163969417569  0.3598817602681708
  0.0472167650617015  0.6898999168022384  0.9674012750943320
  0.3605405843533966  0.2533286730552032  0.6326853972170638
  0.9922810812510784  0.0217723530452899  0.6438679756177027
  0.6011928797041234  0.3991883205988173  0.2598023315562089
  0.9780871467653068  0.2962982809897731  0.3232490824468724
  0.4551761882015985  0.9034465535272518  0.7133698840994909
  0.3576455665283315  0.9922242658159910  0.2696579913702452
  0.6629635331333879  0.5181929859252152  0.9131350152678328
  0.2638969699368491  0.3565910272211240  0.9504351912955553
  0.8773009340618046  0.7213892832884951  0.4629604587685814
  0.1285036420190465  0.2562959712472668  0.5162826216938622
  0.6380346389759621  0.0186607388197851  0.7337040093337270
  0.5494795526181191  0.1022817238435846  0.2890600020893153
  0.7248826521142505  0.6521769009892506  0.0450411818311180
  0.2892124949458434  0.4804531548271604  0.1206144269017678
  0.0183462066390309  0.6941456949063766  0.6548554010161100
 
             NaN             NaN             NaN
             NaN             NaN             NaN
             NaN             NaN             NaN
             NaN             NaN             NaN
             NaN             NaN             NaN
             NaN             NaN             NaN
             NaN             NaN             NaN
             NaN             NaN             NaN
             NaN             NaN             NaN
             NaN             NaN             NaN
             NaN             NaN             NaN
             NaN             NaN             NaN
             NaN             NaN             NaN
             NaN             NaN             NaN
             NaN             NaN             NaN
             NaN             NaN             NaN
             NaN             NaN             NaN
             NaN             NaN             NaN
             NaN             NaN             NaN
             NaN             NaN             NaN
             NaN             NaN             NaN
             NaN             NaN             NaN
             NaN             NaN             NaN
             NaN             NaN             NaN
             NaN             NaN             NaN
             NaN             NaN             NaN
             NaN             NaN             NaN
             NaN             NaN             NaN
             NaN             NaN             NaN
             NaN             NaN             NaN
             NaN             NaN             NaN
             NaN             NaN             NaN
             NaN             NaN             NaN
             NaN             NaN             NaN
             NaN             NaN             NaN
