Ca1 Ni4 S6 O24                          
   1.00000000000000     
     7.4979050000000003    0.2831400000000000    4.3304939999999998
     2.7953999999999999    6.8428909999999998    4.6565740000000000
     0.6492019999999999    0.2752070000000000    8.7760940000000005
   Ca   Ni   S    O 
     1     4     6    24
Direct
  0.3981662411536446  0.6193653404643709  0.4948856050243977
  0.6458336732431573  0.6498924444809822  0.6446329908390860
  0.1454907086875777  0.1587943868158717  0.1489690239631584
  0.8461833133826083  0.8436716235658474  0.8446860843781651
  0.3587763815782146  0.3475847191312053  0.3585687149892160
  0.9622258278174172  0.2386646761379662  0.5303107491751843
  0.4449341865580227  0.0399166143793242  0.7594604501045413
  0.5568671322966461  0.9703146493102807  0.2370792490756959
  0.7320210308772153  0.4683684431385701  0.0514488379080691
  0.2486485087005081  0.5331375144468499  0.9640001181431851
  0.0158790462818557  0.7599749451308007  0.4507405304872841
  0.3869324283770846  0.6131230073043369  0.7621665142549366
  0.9429512472141216  0.3198338849097524  0.0201838851060654
  0.7669570375263919  0.3705053230778041  0.6173212827482265
 -0.0030302914433852  0.9727996353809615  0.3344390889256564
  0.6266630286566011  0.7519481607463336  0.3784429559180874
  0.3035724436801269  0.0131261729738674  0.9719537504471151
  0.6899836348490899  0.9904176135247618  0.0338736606669700
  0.2311481332077612  0.6373929829045859  0.3540833911852251
  0.0411499207052835  0.6899701623064687  0.9710775321983668
  0.3629226857777938  0.2547549494308599  0.6290505819386510
  0.9903075772411201  0.0228280631179010  0.6467371559818307
  0.6042764945049107  0.3955427331967656  0.2595372501386327
  0.9728222714384637  0.2957030210637981  0.3288418103186286
  0.4620259784033880  0.9036615578769326  0.7128432107625395
  0.3553612238915612  0.9879216245820581  0.2738245752384503
  0.6666991121165770  0.5119418513569449  0.9157773377591422
  0.2677525831253604  0.3546682395841776  0.9519561570625745
  0.8876681519181051  0.7113779570307959  0.4648204234792454
  0.1267695704964453  0.2588206069844948  0.5170143570282518
  0.6409222541094558  0.0225250571220749  0.7322245565391337
  0.5460283670680461  0.1008657019748630  0.2894336318818304
  0.7214938153772619  0.6542039739317513  0.0441507781567973
  0.2881088487940395  0.4870094617233734  0.1141651159979266
  0.0196102957702578  0.6960763475393387  0.6584956588239828
 
             NaN             NaN             NaN
             NaN             NaN             NaN
             NaN             NaN             NaN
             NaN             NaN             NaN
             NaN             NaN             NaN
             NaN             NaN             NaN
             NaN             NaN             NaN
             NaN             NaN             NaN
             NaN             NaN             NaN
             NaN             NaN             NaN
             NaN             NaN             NaN
             NaN             NaN             NaN
             NaN             NaN             NaN
             NaN             NaN             NaN
             NaN             NaN             NaN
             NaN             NaN             NaN
             NaN             NaN             NaN
             NaN             NaN             NaN
             NaN             NaN             NaN
             NaN             NaN             NaN
             NaN             NaN             NaN
             NaN             NaN             NaN
             NaN             NaN             NaN
             NaN             NaN             NaN
             NaN             NaN             NaN
             NaN             NaN             NaN
             NaN             NaN             NaN
             NaN             NaN             NaN
             NaN             NaN             NaN
             NaN             NaN             NaN
             NaN             NaN             NaN
             NaN             NaN             NaN
             NaN             NaN             NaN
             NaN             NaN             NaN
             NaN             NaN             NaN
