Fe12 P16 O56                            
   1.00000000000000     
     8.9801146175268212   -0.0000000013452060   -0.0000003749214384
    -0.0000000000612397   12.2081681208046007   -0.0000025330228912
    -0.0000000952394090   -0.0000021180637518   10.1941224112287756
   Fe   P    O 
    12    16    56
Direct
  0.7522659268336369  0.2500000074539344  0.3812244329202770
  0.2522659029945373  0.2499999920731284  0.1187756601109342
  0.2477137909306037  0.7499999942179443  0.6188234803984258
  0.7477138660077998  0.7500000058986203  0.8811765970704499
  0.7497919775880248  0.0123203653040562  0.3794169044635822
  0.2497920455825380  0.4876795490541994  0.1205830012338964
  0.2501400524903445  0.5123527865777575  0.6205075074091155
  0.7501401821416422  0.9876472516090260  0.8794923886486146
  0.2501398250709741  0.9876471315994948  0.6205071116793306
  0.7501399550470822  0.5123528291295898  0.8794927840802131
  0.7497917723941185  0.4876797924671408  0.3794164693755846
  0.2497918427722823  0.0123202955107971  0.1205834339541809
  0.4135548117973897  0.1322591087176264  0.3804389674873789
  0.9135547683932472  0.3677408681524952  0.1195610464307393
  0.5864953313948433  0.6322805464953660  0.6195566571653828
  0.0864952163709134  0.8677194863616506  0.8804433158283871
  0.5864952821815237  0.8677194159952961  0.6195566576398406
  0.0864951656345170  0.6322805507515028  0.8804433155828377
  0.4135547689683889  0.3677409231477213  0.3804389489899265
  0.9135547242243121  0.1322590996199722  0.1195610654582993
  0.4274383020879355  0.1267603038205039  0.8650790927817269
  0.9274383160868283  0.3732396522508097  0.6349209153788919
  0.5725499821070770  0.6267445628782866  0.1348857828312049
  0.0725500370103020  0.8732554970385067  0.3651142429153396
  0.5725500665952410  0.8732555263163846  0.1348858204804699
  0.0725501207521262  0.6267444139794236  0.3651142060548764
  0.4274383705480886  0.3732396110581249  0.8650791032763152
  0.9274383850897721  0.1267604321694833  0.6349209043700270
  0.8699690825807878  0.2499999748720683  0.0628704273472636
  0.3699691895792228  0.2500000254204480  0.4371295587118951
  0.1301738043729799  0.7500000242050291  0.9371170543818010
  0.6301740310611663  0.7499999750570012  0.5628829189375679
  0.9526830288636390  0.2500000277080119  0.6806042062525179
  0.4526830152957331  0.2499999729385465  0.8193958702387008
  0.0473431857032836  0.7499999738205005  0.3194810980297405
  0.5473430533175190  0.7500000269963252  0.1805190423143017
  0.0789117302037354  0.4204752695706446  0.6083626046523918
  0.5789117509202910  0.0795246833745367  0.8916374189088927
  0.9210678629814879  0.9204915542423322  0.3916132049062000
  0.4210678879365375  0.5795084452560175  0.1083867404738257
  0.9210678754539998  0.5795084464886742  0.3916131540276453
  0.4210678987665446  0.9204915556164792  0.1083867908155369
  0.0789117327760778  0.0795247382093862  0.6083625520448592
  0.5789117503089543  0.4204753078651251  0.8916374702843228
  0.8474012990489612  0.0710536958472545  0.7451583421230765
  0.3474012900220700  0.4289463594532776  0.7548416691256818
  0.1526131689229899  0.5711001743413036  0.2548524837390147
  0.6526131212191473  0.9288997921126736  0.2451475328353325
  0.1526131061280793  0.9288997688477707  0.2548526165736078
  0.6526130567973638  0.5711002658915163  0.2451473979387302
  0.8474012498301136  0.4289463474765256  0.7451584543735947
  0.3474012407508695  0.0710535953785723  0.7548415561553483
  0.5825983043075951  0.1318843538752219  0.3707201066049777
  0.0825982598808324  0.3681155860881518  0.1292798928110415
  0.4174432401090229  0.6319791912263781  0.6291840967985394
  0.9174431238520029  0.8680209795658627  0.8708158339013110
  0.4174431979809583  0.8680208047906390  0.6291840385714522
  0.9174430816046666  0.6319790239384133  0.8708158920529030
  0.5825982700166108  0.3681156523930795  0.3707200436743179
  0.0825982259733564  0.1318844081772212  0.1292799555657140
  0.3349089309518618  0.1321858476129023  0.9905207412254171
  0.8349088919958874  0.3678141167242543  0.5094792938525714
  0.6650397359437861  0.6320956287984174  0.0094385665510899
  0.1650396077315648  0.8679045565259997  0.4905615703914776
  0.6650397384764659  0.8679043781562115  0.0094385510968777
  0.1650396086560448  0.6320954367322145  0.4905615849148219
  0.3349089349590741  0.3678141440952629  0.9905207185774643
  0.8349088950130650  0.1321858915132950  0.5094793152919550
  0.8421679018281125  0.1261496176633017  0.2549206839675335
  0.3421679536167801  0.3738503910214845  0.2450793052319469
  0.1577465382797598  0.6261651607815608  0.7450231173543642
  0.6577467698345316  0.8738348483459077  0.7549767964107943
  0.1577465502637452  0.8738348511304039  0.7450231033780454
  0.6577467810879938  0.6261651387976173  0.7549768102815690
  0.8421679193165588  0.3738503682500323  0.2549206587776283
  0.3421679714246508  0.1261496239310063  0.2450793307862043
  0.8528775123822783  0.0498019914805141  0.0272103838619770
  0.3528775349538620  0.4501979788516408  0.4727896584337330
  0.1471790458359976  0.5497971479901338  0.9727509758590571
  0.6471790402203510  0.9502028690540811  0.5272489884487115
  0.1471790775117512  0.9502028734100634  0.9727510764330773
  0.6471790709209557  0.5497971089325588  0.5272488875955261
  0.8528775301115843  0.4501979941432097  0.0272104673742177
  0.3528775530206616  0.0498020353641166  0.4727895747156055
 
  0.00000000E+00  0.00000000E+00  0.00000000E+00
  0.00000000E+00  0.00000000E+00  0.00000000E+00
  0.00000000E+00  0.00000000E+00  0.00000000E+00
  0.00000000E+00  0.00000000E+00  0.00000000E+00
  0.00000000E+00  0.00000000E+00  0.00000000E+00
  0.00000000E+00  0.00000000E+00  0.00000000E+00
  0.00000000E+00  0.00000000E+00  0.00000000E+00
  0.00000000E+00  0.00000000E+00  0.00000000E+00
  0.00000000E+00  0.00000000E+00  0.00000000E+00
  0.00000000E+00  0.00000000E+00  0.00000000E+00
  0.00000000E+00  0.00000000E+00  0.00000000E+00
  0.00000000E+00  0.00000000E+00  0.00000000E+00
  0.00000000E+00  0.00000000E+00  0.00000000E+00
  0.00000000E+00  0.00000000E+00  0.00000000E+00
  0.00000000E+00  0.00000000E+00  0.00000000E+00
  0.00000000E+00  0.00000000E+00  0.00000000E+00
  0.00000000E+00  0.00000000E+00  0.00000000E+00
  0.00000000E+00  0.00000000E+00  0.00000000E+00
  0.00000000E+00  0.00000000E+00  0.00000000E+00
  0.00000000E+00  0.00000000E+00  0.00000000E+00
  0.00000000E+00  0.00000000E+00  0.00000000E+00
  0.00000000E+00  0.00000000E+00  0.00000000E+00
  0.00000000E+00  0.00000000E+00  0.00000000E+00
  0.00000000E+00  0.00000000E+00  0.00000000E+00
  0.00000000E+00  0.00000000E+00  0.00000000E+00
  0.00000000E+00  0.00000000E+00  0.00000000E+00
  0.00000000E+00  0.00000000E+00  0.00000000E+00
  0.00000000E+00  0.00000000E+00  0.00000000E+00
  0.00000000E+00  0.00000000E+00  0.00000000E+00
  0.00000000E+00  0.00000000E+00  0.00000000E+00
  0.00000000E+00  0.00000000E+00  0.00000000E+00
  0.00000000E+00  0.00000000E+00  0.00000000E+00
  0.00000000E+00  0.00000000E+00  0.00000000E+00
  0.00000000E+00  0.00000000E+00  0.00000000E+00
  0.00000000E+00  0.00000000E+00  0.00000000E+00
  0.00000000E+00  0.00000000E+00  0.00000000E+00
  0.00000000E+00  0.00000000E+00  0.00000000E+00
  0.00000000E+00  0.00000000E+00  0.00000000E+00
  0.00000000E+00  0.00000000E+00  0.00000000E+00
  0.00000000E+00  0.00000000E+00  0.00000000E+00
  0.00000000E+00  0.00000000E+00  0.00000000E+00
  0.00000000E+00  0.00000000E+00  0.00000000E+00
  0.00000000E+00  0.00000000E+00  0.00000000E+00
  0.00000000E+00  0.00000000E+00  0.00000000E+00
  0.00000000E+00  0.00000000E+00  0.00000000E+00
  0.00000000E+00  0.00000000E+00  0.00000000E+00
  0.00000000E+00  0.00000000E+00  0.00000000E+00
  0.00000000E+00  0.00000000E+00  0.00000000E+00
  0.00000000E+00  0.00000000E+00  0.00000000E+00
  0.00000000E+00  0.00000000E+00  0.00000000E+00
  0.00000000E+00  0.00000000E+00  0.00000000E+00
  0.00000000E+00  0.00000000E+00  0.00000000E+00
  0.00000000E+00  0.00000000E+00  0.00000000E+00
  0.00000000E+00  0.00000000E+00  0.00000000E+00
  0.00000000E+00  0.00000000E+00  0.00000000E+00
  0.00000000E+00  0.00000000E+00  0.00000000E+00
  0.00000000E+00  0.00000000E+00  0.00000000E+00
  0.00000000E+00  0.00000000E+00  0.00000000E+00
  0.00000000E+00  0.00000000E+00  0.00000000E+00
  0.00000000E+00  0.00000000E+00  0.00000000E+00
  0.00000000E+00  0.00000000E+00  0.00000000E+00
  0.00000000E+00  0.00000000E+00  0.00000000E+00
  0.00000000E+00  0.00000000E+00  0.00000000E+00
  0.00000000E+00  0.00000000E+00  0.00000000E+00
  0.00000000E+00  0.00000000E+00  0.00000000E+00
  0.00000000E+00  0.00000000E+00  0.00000000E+00
  0.00000000E+00  0.00000000E+00  0.00000000E+00
  0.00000000E+00  0.00000000E+00  0.00000000E+00
  0.00000000E+00  0.00000000E+00  0.00000000E+00
  0.00000000E+00  0.00000000E+00  0.00000000E+00
  0.00000000E+00  0.00000000E+00  0.00000000E+00
  0.00000000E+00  0.00000000E+00  0.00000000E+00
  0.00000000E+00  0.00000000E+00  0.00000000E+00
  0.00000000E+00  0.00000000E+00  0.00000000E+00
  0.00000000E+00  0.00000000E+00  0.00000000E+00
  0.00000000E+00  0.00000000E+00  0.00000000E+00
  0.00000000E+00  0.00000000E+00  0.00000000E+00
  0.00000000E+00  0.00000000E+00  0.00000000E+00
  0.00000000E+00  0.00000000E+00  0.00000000E+00
  0.00000000E+00  0.00000000E+00  0.00000000E+00
  0.00000000E+00  0.00000000E+00  0.00000000E+00
  0.00000000E+00  0.00000000E+00  0.00000000E+00
  0.00000000E+00  0.00000000E+00  0.00000000E+00
  0.00000000E+00  0.00000000E+00  0.00000000E+00
