Fe12 P16 O56
1.0
8.950000 0.000000 0.000000
0.000000 12.235000 0.000000
0.000000 0.000000 10.174000
Fe P O
12 16 56
direct
0.753900 0.250000 0.380900 Fe2+
0.253900 0.250000 0.119100 Fe2+
0.246100 0.750000 0.619100 Fe2+
0.746100 0.750000 0.880900 Fe2+
0.749500 0.011000 0.378900 Fe3+
0.249500 0.489000 0.121100 Fe3+
0.250500 0.511000 0.621100 Fe3+
0.750500 0.989000 0.878900 Fe3+
0.250500 0.989000 0.621100 Fe3+
0.750500 0.511000 0.878900 Fe3+
0.749500 0.489000 0.378900 Fe3+
0.249500 0.011000 0.121100 Fe3+
0.413600 0.132700 0.380800 P5+
0.913600 0.367300 0.119200 P5+
0.586400 0.632700 0.619200 P5+
0.086400 0.867300 0.880800 P5+
0.586400 0.867300 0.619200 P5+
0.086400 0.632700 0.880800 P5+
0.413600 0.367300 0.380800 P5+
0.913600 0.132700 0.119200 P5+
0.427500 0.126900 0.864700 P5+
0.927500 0.373100 0.635300 P5+
0.572500 0.626900 0.135300 P5+
0.072500 0.873100 0.364700 P5+
0.572500 0.873100 0.135300 P5+
0.072500 0.626900 0.364700 P5+
0.427500 0.373100 0.864700 P5+
0.927500 0.126900 0.635300 P5+
0.870700 0.250000 0.062400 O2-
0.370700 0.250000 0.437600 O2-
0.129300 0.750000 0.937600 O2-
0.629300 0.750000 0.562400 O2-
0.952200 0.250000 0.681100 O2-
0.452200 0.250000 0.818900 O2-
0.047800 0.750000 0.318900 O2-
0.547800 0.750000 0.181100 O2-
0.079100 0.422000 0.608600 O2-
0.579100 0.078000 0.891400 O2-
0.920900 0.922000 0.391400 O2-
0.420900 0.578000 0.108600 O2-
0.920900 0.578000 0.391400 O2-
0.420900 0.922000 0.108600 O2-
0.079100 0.078000 0.608600 O2-
0.579100 0.422000 0.891400 O2-
0.848300 0.070600 0.744900 O2-
0.348300 0.429400 0.755100 O2-
0.151700 0.570600 0.255100 O2-
0.651700 0.929400 0.244900 O2-
0.151700 0.929400 0.255100 O2-
0.651700 0.570600 0.244900 O2-
0.848300 0.429400 0.744900 O2-
0.348300 0.070600 0.755100 O2-
0.582300 0.131700 0.371500 O2-
0.082300 0.368300 0.128500 O2-
0.417700 0.631700 0.628500 O2-
0.917700 0.868300 0.871500 O2-
0.417700 0.868300 0.628500 O2-
0.917700 0.631700 0.871500 O2-
0.582300 0.368300 0.371500 O2-
0.082300 0.131700 0.128500 O2-
0.335300 0.131000 0.989600 O2-
0.835300 0.369000 0.510400 O2-
0.664700 0.631000 0.010400 O2-
0.164700 0.869000 0.489600 O2-
0.664700 0.869000 0.010400 O2-
0.164700 0.631000 0.489600 O2-
0.335300 0.369000 0.989600 O2-
0.835300 0.131000 0.510400 O2-
0.841500 0.125900 0.255100 O2-
0.341500 0.374100 0.244900 O2-
0.158500 0.625900 0.744900 O2-
0.658500 0.874100 0.755100 O2-
0.158500 0.874100 0.744900 O2-
0.658500 0.625900 0.755100 O2-
0.841500 0.374100 0.255100 O2-
0.341500 0.125900 0.244900 O2-
0.851700 0.050000 0.027700 O2-
0.351700 0.450000 0.472300 O2-
0.148300 0.550000 0.972300 O2-
0.648300 0.950000 0.527700 O2-
0.148300 0.950000 0.972300 O2-
0.648300 0.550000 0.527700 O2-
0.851700 0.450000 0.027700 O2-
0.351700 0.050000 0.472300 O2-
