Cr4 S6 O24                              
   1.00000000000000     
     7.3853423691939204    0.0762417232231392    4.2826232285879398
     2.5082562900103569    6.9498853411539336    4.2776445815062178
     0.1091845337610978    0.0839805156424153    8.5364901468555114
   Cr   S    O 
     4     6    24
Direct
  0.6399214081419018  0.6399975953683281  0.6398177016649527
  0.1399729075328295  0.1399335703847981  0.1398461140780398
  0.8546429129002107  0.8545835552928267  0.8546995144209077
  0.3546322896923328  0.3546317886181001  0.3546621601223521
  0.9559539105972945  0.2474687235692699  0.5388781351303962
  0.4558984188403770  0.0389078941868917  0.7474331687282785
  0.5389326889074155  0.9559343020509274  0.2474090212350930
  0.7474180321628481  0.4559486103694539  0.0389496279219514
  0.2474490373545279  0.5388998564657541  0.9558881600609723
  0.0389090633592701  0.7473908952597981  0.4559815539145546
  0.4134891503549696  0.5582749801171190  0.7771254888189958
  0.9135870292774584  0.2772571251003200  0.0579604677674723
  0.7771416678593539  0.4134637909151664  0.5582274230953743
  0.0579435186058816  0.9136664657596398  0.2773978980831160
  0.5582369961023659  0.7770831673941103  0.4134087591159386
  0.2772304825941845  0.0578570325228043  0.9136636083590233
  0.7178100572819304  0.9362261547544364  0.0815679532549325
  0.2179201809644482  0.5817401756333922  0.4358769563001275
  0.0815943084815558  0.7178023549580530  0.9361770377723246
  0.4358443027014545  0.2179490664666801  0.5818116619536511
  0.9361969099016392  0.0815442738091718  0.7176615890472746
  0.5817068137130406  0.4358806343023005  0.2179049221774392
  0.9877246538723199  0.2068896399318163  0.3761278300625861
  0.4875970155047327  0.8764337148399406  0.7064543669678400
  0.3763068756916184  0.9875997900240279  0.2066810212437105
  0.7065624356629883  0.4878630747486312  0.8763170068066160
  0.2067895061352090  0.3763188324984128  0.9873588484918585
  0.8763682765138796  0.7066027445463732  0.4875645033718214
  0.1182030765479496  0.2883873170616695  0.5079405180660004
  0.6183044713666064  0.0077772345641236  0.7882321617235135
  0.5077766783721600  0.1182044487800411  0.2884286319035425
  0.7881806221321881  0.6182613956233567  0.0081180252886881
  0.2883172723089302  0.5076615510039701  0.1183072822694058
  0.0078370285641611  0.7879582430783216  0.6185208807812757
 
  0.00000000E+00  0.00000000E+00  0.00000000E+00
  0.00000000E+00  0.00000000E+00  0.00000000E+00
  0.00000000E+00  0.00000000E+00  0.00000000E+00
  0.00000000E+00  0.00000000E+00  0.00000000E+00
  0.00000000E+00  0.00000000E+00  0.00000000E+00
  0.00000000E+00  0.00000000E+00  0.00000000E+00
  0.00000000E+00  0.00000000E+00  0.00000000E+00
  0.00000000E+00  0.00000000E+00  0.00000000E+00
  0.00000000E+00  0.00000000E+00  0.00000000E+00
  0.00000000E+00  0.00000000E+00  0.00000000E+00
  0.00000000E+00  0.00000000E+00  0.00000000E+00
  0.00000000E+00  0.00000000E+00  0.00000000E+00
  0.00000000E+00  0.00000000E+00  0.00000000E+00
  0.00000000E+00  0.00000000E+00  0.00000000E+00
  0.00000000E+00  0.00000000E+00  0.00000000E+00
  0.00000000E+00  0.00000000E+00  0.00000000E+00
  0.00000000E+00  0.00000000E+00  0.00000000E+00
  0.00000000E+00  0.00000000E+00  0.00000000E+00
  0.00000000E+00  0.00000000E+00  0.00000000E+00
  0.00000000E+00  0.00000000E+00  0.00000000E+00
  0.00000000E+00  0.00000000E+00  0.00000000E+00
  0.00000000E+00  0.00000000E+00  0.00000000E+00
  0.00000000E+00  0.00000000E+00  0.00000000E+00
  0.00000000E+00  0.00000000E+00  0.00000000E+00
  0.00000000E+00  0.00000000E+00  0.00000000E+00
  0.00000000E+00  0.00000000E+00  0.00000000E+00
  0.00000000E+00  0.00000000E+00  0.00000000E+00
  0.00000000E+00  0.00000000E+00  0.00000000E+00
  0.00000000E+00  0.00000000E+00  0.00000000E+00
  0.00000000E+00  0.00000000E+00  0.00000000E+00
  0.00000000E+00  0.00000000E+00  0.00000000E+00
  0.00000000E+00  0.00000000E+00  0.00000000E+00
  0.00000000E+00  0.00000000E+00  0.00000000E+00
  0.00000000E+00  0.00000000E+00  0.00000000E+00
