Ca1 Co4 S6 O24
1.0
7.520083 0.152119 4.570291
2.660363 7.011289 4.579100
0.257755 0.145896 8.779844
Ca Co S O
1 4 6 24
direct
0.343079 0.737118 0.567467 Ca
0.646974 0.642626 0.651457 Co
0.141896 0.145499 0.144441 Co
0.844812 0.844471 0.848849 Co
0.355040 0.352055 0.349448 Co
0.955873 0.250887 0.528589 S
0.453956 0.039091 0.746926 S
0.541609 0.961083 0.243502 S
0.747547 0.449723 0.045046 S
0.247240 0.536213 0.954819 S
0.040424 0.748967 0.458901 S
0.396688 0.588299 0.763379 O
0.925275 0.288538 0.045890 O
0.790959 0.411262 0.573444 O
0.054838 0.921094 0.297864 O
0.594857 0.773632 0.394852 O
0.315966 0.033405 0.941298 O
0.680285 0.956851 0.053771 O
0.208146 0.584905 0.420557 O
0.067851 0.697319 0.948594 O
0.394310 0.229580 0.605712 O
0.946221 0.071302 0.689038 O
0.594049 0.407413 0.232083 O
0.963297 0.249784 0.358964 O
0.459293 0.892199 0.708357 O
0.348227 0.989408 0.268134 O
0.698750 0.483326 0.892390 O
0.237373 0.366723 0.976574 O
0.868999 0.730775 0.503502 O
0.131080 0.259937 0.495202 O
0.644078 0.000144 0.731225 O
0.531001 0.112713 0.275757 O
0.761739 0.618967 0.019396 O
0.292304 0.508549 0.105659 O
0.038207 0.754100 0.625779 O
