Ni12 P4                                 
   1.00000000000000     
     0.0008288100430298    0.0040178862029244   -4.2508974048556594
    -4.3778176051276585   -4.3880790782428347   -2.1203996413517054
    -4.3724697946895112    4.3874223069810157   -2.1287437782646386
   Ni   P 
    12     4
Direct
  0.1310923680358229  0.0334288351530461  0.1891918548727602
  0.3537817770035971  0.9669319459010524  0.8107638509063904
  0.6815331371932487  0.1874639492706152  0.9640268947874517
  0.8371474968995116  0.8106566444219254  0.0370701679158714
  0.9450888700146862  0.6674672957283931  0.3980802222820898
  0.0084981868957783  0.3324774096620544  0.6016185747498071
  0.6542898206026635  0.3986359224675553  0.3327072801734019
  0.3884466537761355  0.6018846627925925  0.6671068823447044
  0.5368050052867090  0.0520536815020876  0.3892867709164491
  0.9777520887459943  0.9483762192692922  0.6104786853639794
  0.0736343058635782  0.3885259300416095  0.9480580023315710
  0.4124089379631570  0.6110338760948366  0.0520540486444148
  0.4334586589255167  0.7631398418113307  0.3323131873396790
  0.5274961256128989  0.2372799257605323  0.6672743428553431
  0.2346269641985117  0.3315327623344402  0.2362270299321167
  0.8039396029821972  0.6691110977886439  0.7637422045839770
 
  0.00000000E+00  0.00000000E+00  0.00000000E+00
  0.00000000E+00  0.00000000E+00  0.00000000E+00
  0.00000000E+00  0.00000000E+00  0.00000000E+00
  0.00000000E+00  0.00000000E+00  0.00000000E+00
  0.00000000E+00  0.00000000E+00  0.00000000E+00
  0.00000000E+00  0.00000000E+00  0.00000000E+00
  0.00000000E+00  0.00000000E+00  0.00000000E+00
  0.00000000E+00  0.00000000E+00  0.00000000E+00
  0.00000000E+00  0.00000000E+00  0.00000000E+00
  0.00000000E+00  0.00000000E+00  0.00000000E+00
  0.00000000E+00  0.00000000E+00  0.00000000E+00
  0.00000000E+00  0.00000000E+00  0.00000000E+00
  0.00000000E+00  0.00000000E+00  0.00000000E+00
  0.00000000E+00  0.00000000E+00  0.00000000E+00
  0.00000000E+00  0.00000000E+00  0.00000000E+00
  0.00000000E+00  0.00000000E+00  0.00000000E+00
