Ca4 Cr4 Si16 O40                        
   1.00000000000000     
     7.3728035778242837   -0.0000000089296366   -0.0000000799814514
    -0.0000000090553580    7.3727037744104518   -0.0000000397117258
    -0.0000001582934594   -0.0000000928761678   15.1424280235041753
   Ca   Cr   Si   O 
     4     4    16    40
Direct
  0.5000078703341454  0.4999943938921692  0.4999983284811577
  0.5000078680238034  0.5000056055387353  0.9999983247377590
  0.0000078639338174  0.9999943937662679  0.5000016711118820
  0.0000078566711390  0.0000056078404373  0.0000016752216080
  0.0000086140679888  0.4999779958282018  0.5794531805706824
  0.0000086121548098  0.5000220084445246  0.0794531794477048
  0.5000086089060828  0.9999779921581980  0.4205468187783385
  0.5000086098236164  0.0000220040405171  0.9205468257115114
  0.6727913274539574  0.7524873381733044  0.6475195524637443
  0.6727913176073201  0.2475126569505725  0.1475195515940309
  0.8272084337114142  0.7475044654241839  0.3524770732557677
  0.1727913309635755  0.7475126561131326  0.8524804522980763
  0.3272084417670117  0.2475044540127701  0.6475229229624866
  0.3272084315888952  0.7524955421777165  0.1475229233966219
  0.1727913217274838  0.2524873476331270  0.3524804527125985
  0.8272084439348838  0.2524955397516100  0.8524770732348215
  0.7524967619652081  0.3272094686482110  0.3524791725363551
  0.2474984909891067  0.3272110594995782  0.8524790238715577
  0.2524967703243601  0.8272094569889871  0.6475208263113906
  0.7474984830878638  0.8272110642117253  0.1475209690089119
  0.2474984866730818  0.6727889448944135  0.3524790297592498
  0.7524967687251269  0.6727905349226933  0.8524791766189210
  0.7474984903948755  0.1727889318878292  0.6475209728926864
  0.2524967619697669  0.1727905390381561  0.1475208298260977
  0.7077453588386011  0.7077453890076741  0.7499999490608548
  0.7077453624564529  0.2922546135850969  0.2499999454548998
  0.7922533328604260  0.7922599023727148  0.2499991453689404
  0.2077453635748633  0.7922546137826011  0.7500000537864536
  0.2922533270501979  0.2922599080655370  0.7500008448637868
  0.2922533297495701  0.7077400948152808  0.2500008506110367
  0.2077453647713658  0.2077453824670452  0.2500000592794331
  0.7922533299139518  0.2077400927611863  0.7499991489329886
  0.7501764699124842  0.9549570184643773  0.6273301690118098
  0.7501764672302369  0.0450429786830083  0.1273301680312819
  0.7498186103807318  0.5450515742140477  0.3726646755695822
  0.2501764711414782  0.5450429723044873  0.8726698284398596
  0.2498186158838730  0.0450515628607552  0.6273353285591611
  0.2498186095149815  0.9549484339096390  0.1273353269572438
  0.2501764668896638  0.4549570299327521  0.3726698289801003
  0.7498186138832272  0.4549484280565382  0.8726646738679571
  0.9549596207843060  0.2498294424061009  0.3726654863084164
  0.0450392290546695  0.2498136290150050  0.8726670949497889
  0.4549596254113033  0.7498294298574691  0.6273345126851644
  0.5450392190081429  0.7498136260263306  0.1273329050128214
  0.0450392219799673  0.7501863780358939  0.3726670951910025
  0.9549596279002006  0.7501705659598630  0.8726654864431649
  0.5450392278887636  0.2501863726094082  0.6273329021897924
  0.4549596180786969  0.2501705647255615  0.1273345122307026
  0.7518496004290096  0.6046697045474779  0.5815380751424228
  0.7518495967244283  0.3953303032012255  0.0815380863107392
  0.7481248215463445  0.8953309642873455  0.4184527840386224
  0.2518495999247236  0.8953302843130791  0.9184619367894694
  0.2481248243515754  0.3953309605086424  0.5815472155426864
  0.2481248229650927  0.6046690476471869  0.0815472045494848
  0.2518495931842133  0.1046697063311105  0.4184619267157951
  0.7481248272028165  0.1046690272500588  0.9184527727334119
  0.6046972553391546  0.2481418159516297  0.4184659019441798
  0.3953242014648831  0.2481292627472709  0.9184538901585483
  0.1046972761599402  0.7481418158861490  0.5815340751570910
  0.8953241967690788  0.7481292663093742  0.0815461091878060
  0.3953241909316814  0.7518707336958177  0.4184539039597066
  0.6046972674017492  0.7518581822788372  0.9184659128642259
  0.8953242105238334  0.2518707333689959  0.5815461192255698
  0.1046972641239921  0.2518581859203350  0.0815340870900361
 
  0.00000000E+00  0.00000000E+00  0.00000000E+00
  0.00000000E+00  0.00000000E+00  0.00000000E+00
  0.00000000E+00  0.00000000E+00  0.00000000E+00
  0.00000000E+00  0.00000000E+00  0.00000000E+00
  0.00000000E+00  0.00000000E+00  0.00000000E+00
  0.00000000E+00  0.00000000E+00  0.00000000E+00
  0.00000000E+00  0.00000000E+00  0.00000000E+00
  0.00000000E+00  0.00000000E+00  0.00000000E+00
  0.00000000E+00  0.00000000E+00  0.00000000E+00
  0.00000000E+00  0.00000000E+00  0.00000000E+00
  0.00000000E+00  0.00000000E+00  0.00000000E+00
  0.00000000E+00  0.00000000E+00  0.00000000E+00
  0.00000000E+00  0.00000000E+00  0.00000000E+00
  0.00000000E+00  0.00000000E+00  0.00000000E+00
  0.00000000E+00  0.00000000E+00  0.00000000E+00
  0.00000000E+00  0.00000000E+00  0.00000000E+00
  0.00000000E+00  0.00000000E+00  0.00000000E+00
  0.00000000E+00  0.00000000E+00  0.00000000E+00
  0.00000000E+00  0.00000000E+00  0.00000000E+00
  0.00000000E+00  0.00000000E+00  0.00000000E+00
  0.00000000E+00  0.00000000E+00  0.00000000E+00
  0.00000000E+00  0.00000000E+00  0.00000000E+00
  0.00000000E+00  0.00000000E+00  0.00000000E+00
  0.00000000E+00  0.00000000E+00  0.00000000E+00
  0.00000000E+00  0.00000000E+00  0.00000000E+00
  0.00000000E+00  0.00000000E+00  0.00000000E+00
  0.00000000E+00  0.00000000E+00  0.00000000E+00
  0.00000000E+00  0.00000000E+00  0.00000000E+00
  0.00000000E+00  0.00000000E+00  0.00000000E+00
  0.00000000E+00  0.00000000E+00  0.00000000E+00
  0.00000000E+00  0.00000000E+00  0.00000000E+00
  0.00000000E+00  0.00000000E+00  0.00000000E+00
  0.00000000E+00  0.00000000E+00  0.00000000E+00
  0.00000000E+00  0.00000000E+00  0.00000000E+00
  0.00000000E+00  0.00000000E+00  0.00000000E+00
  0.00000000E+00  0.00000000E+00  0.00000000E+00
  0.00000000E+00  0.00000000E+00  0.00000000E+00
  0.00000000E+00  0.00000000E+00  0.00000000E+00
  0.00000000E+00  0.00000000E+00  0.00000000E+00
  0.00000000E+00  0.00000000E+00  0.00000000E+00
  0.00000000E+00  0.00000000E+00  0.00000000E+00
  0.00000000E+00  0.00000000E+00  0.00000000E+00
  0.00000000E+00  0.00000000E+00  0.00000000E+00
  0.00000000E+00  0.00000000E+00  0.00000000E+00
  0.00000000E+00  0.00000000E+00  0.00000000E+00
  0.00000000E+00  0.00000000E+00  0.00000000E+00
  0.00000000E+00  0.00000000E+00  0.00000000E+00
  0.00000000E+00  0.00000000E+00  0.00000000E+00
  0.00000000E+00  0.00000000E+00  0.00000000E+00
  0.00000000E+00  0.00000000E+00  0.00000000E+00
  0.00000000E+00  0.00000000E+00  0.00000000E+00
  0.00000000E+00  0.00000000E+00  0.00000000E+00
  0.00000000E+00  0.00000000E+00  0.00000000E+00
  0.00000000E+00  0.00000000E+00  0.00000000E+00
  0.00000000E+00  0.00000000E+00  0.00000000E+00
  0.00000000E+00  0.00000000E+00  0.00000000E+00
  0.00000000E+00  0.00000000E+00  0.00000000E+00
  0.00000000E+00  0.00000000E+00  0.00000000E+00
  0.00000000E+00  0.00000000E+00  0.00000000E+00
  0.00000000E+00  0.00000000E+00  0.00000000E+00
  0.00000000E+00  0.00000000E+00  0.00000000E+00
  0.00000000E+00  0.00000000E+00  0.00000000E+00
  0.00000000E+00  0.00000000E+00  0.00000000E+00
  0.00000000E+00  0.00000000E+00  0.00000000E+00
