Ca4 V4 P6 O24                           
   1.00000000000000     
     2.5504020000000001    7.2558490000000004    4.3278319999999999
    -0.0041500000000000    0.0163410000000000    8.7968790000000006
     7.6703130000000002    0.0170240000000000    4.3052590000000004
   Ca   V    P    O 
     4     4     6    24
Direct
  0.2487367480832008  0.8659322141191638  0.5876765250373026
  0.9699497745632630 -0.0017619349410598  0.0204903111518664
  0.4103207540717543  0.7379810441957350  0.1091379834572363
  0.1394663789220627  0.3947323938088027  0.7424457544326839
  0.6563043773727238  0.6224474161285121  0.6301643622847231
  0.1505290230325698  0.1414443787593571  0.1488092100762272
  0.8423118007579500  0.8537301570433911  0.8561398082370336
  0.3544357832394764  0.3460034868043657  0.3516050930634533
  0.2493081322232019  0.5496549774584416  0.9509345737424938
  0.0404973197908088  0.7460788669144121  0.4445984300813006
  0.9641958266100190  0.2460414360562710  0.5542341975238801
  0.4523207151080326  0.0298765765415047  0.7418533226758883
  0.5425945024605532  0.9443496752336331  0.2489624070248720
  0.7547434941590598  0.4492747581470147  0.0316835642495870
  0.5644744606187316  0.7689891737527941  0.4163269341224577
  0.2618598516211265  0.0580299026165570  0.9074462321656638
  0.4092548281873133  0.5696279513311500  0.7667110337458012
  0.9261350308258554  0.2748631371549182  0.0530596390635353
  0.7819914862633432  0.4001948599060449  0.5595768489392875
  0.0766277042134726  0.9044229313483024  0.2602191760532987
  0.9465137793498936  0.0763129990488475  0.7347334856513229
  0.5836555197116541  0.4208982628057268  0.1950065593647970
  0.7208405298483708  0.9375149017436630  0.0854201865747367
  0.2296889407866396  0.5859604303199779  0.4226709732841094
  0.0909793338138598  0.7382690438390143  0.9132140891482402
  0.4294767919521257  0.2123279419176603  0.5869425171773776
  0.1959129271973454  0.3923661756685760  0.9840406081793023
  0.8835257422773382  0.7032397380173264  0.4707247564333799
  0.0465176512340225  0.1677834151598782  0.3991846964128157
  0.4731771503999234  0.8631578262856301  0.7092026631030038
  0.3877445877176164  0.9452036895526768  0.2114897582147557
  0.7481881928923455  0.4830416655505311  0.8464840467060575
  0.2853960938535249  0.5321016342160432  0.1115159784405878
  0.0155725876302416  0.7781835543406732  0.6139877867878579
  0.1110183232651382  0.3000459441101559  0.5471287192781822
  0.6000542131497357  0.9802074755683257  0.8137895928818271
  0.4707426766375451  0.1102664273507771  0.3030064726280223
  0.7697042551547346  0.6209426495136923  0.0189112055513733
 
             NaN             NaN             NaN
             NaN             NaN             NaN
             NaN             NaN             NaN
             NaN             NaN             NaN
             NaN             NaN             NaN
             NaN             NaN             NaN
             NaN             NaN             NaN
             NaN             NaN             NaN
             NaN             NaN             NaN
             NaN             NaN             NaN
             NaN             NaN             NaN
             NaN             NaN             NaN
             NaN             NaN             NaN
             NaN             NaN             NaN
             NaN             NaN             NaN
             NaN             NaN             NaN
             NaN             NaN             NaN
             NaN             NaN             NaN
             NaN             NaN             NaN
             NaN             NaN             NaN
             NaN             NaN             NaN
             NaN             NaN             NaN
             NaN             NaN             NaN
             NaN             NaN             NaN
             NaN             NaN             NaN
             NaN             NaN             NaN
             NaN             NaN             NaN
             NaN             NaN             NaN
             NaN             NaN             NaN
             NaN             NaN             NaN
             NaN             NaN             NaN
             NaN             NaN             NaN
             NaN             NaN             NaN
             NaN             NaN             NaN
             NaN             NaN             NaN
             NaN             NaN             NaN
             NaN             NaN             NaN
             NaN             NaN             NaN
