Cr4 P12 O36                             
   1.00000000000000     
     8.0081283163653634   -0.0000000833666017   -2.2666893987225061
    -0.0000001750305797   15.2345676874725751   -0.0000000675248052
     0.0002762477328810   -0.0000000249151367    6.2305651539159941
   Cr   P    O 
     4    12    36
Direct
  0.8751915598621949  0.3623706809542355  0.1162906698711836
  0.6248191588436995  0.8623821356520338  0.8837187471493522
  0.1248191559298419  0.6376178662179441  0.8837187487562161
  0.3751915569253939  0.1376293172018350  0.1162906726306332
  0.5156167415061006  0.3393114004558697  0.2062775437862570
  0.9843839105144667  0.8393133387839526  0.7937156637002687
  0.4843839496360047  0.6606866819068173  0.7937156599530439
  0.0156167861624894  0.1606885769243647  0.2062775399610146
  0.7915458110581355  0.3875490738971834  0.5863796917890340
  0.7084512490333665  0.8875513474008088  0.4136288740073297
  0.2084512491672967  0.6124486554627424  0.4136288693909478
  0.2915458129607842  0.1124509230298614  0.5863796879759633
  0.7800241533145780  0.5446330574310423  0.8514513371745664
  0.7199782995030546  0.0446333560900243  0.1485500106930573
  0.2199782961819494  0.4553666377111725  0.1485500090017808
  0.2800241492402336  0.9553669503575861  0.8514513394773502
  0.6120128971420868  0.3495767749646816  0.4635931948889009
  0.8879810580137786  0.8495799177357384  0.5364033376316613
  0.3879810533253831  0.6504200825190551  0.5364033402440640
  0.1120128937452165  0.1504232254029034  0.4635931985281161
  0.4036693903282966  0.4253185064295053  0.1604806602122508
  0.0963321161885986  0.9253187045209259  0.8394994548010004
  0.5963321179876075  0.5746812917759812  0.8394994552807731
  0.9036693917005749  0.0746814974526089  0.1604806639153296
  0.7479405729935635  0.4865122743583044  0.6315462810222314
  0.7520591048021004  0.9865155049744345  0.3684523688122212
  0.2520590997754155  0.5134844956646489  0.3684523590082520
  0.2479405679525755  0.0134877245690603  0.6315462723464833
  0.4051895693982175  0.2623393930231188  0.1841739696823979
  0.0947952239124632  0.7623381575257397  0.8158047278930596
  0.5947952052727743  0.7376618240158592  0.8158047360871876
  0.9051895494018396  0.2376606274169077  0.1841739789795298
  0.6335162137925963  0.3467054306918982  0.0663560894899931
  0.8665001361584359  0.8467158389760883  0.9336555665647452
  0.3665001183865542  0.6532841594371703  0.9336555792482173
  0.1335161929395383  0.1532945709475300  0.0663561046744761
  0.8541346852040022  0.3401680574396693  0.8003978306964186
  0.6458564967618940  0.8401715491414166  0.1996128089009375
  0.1458564975416934  0.6598284529499949  0.1996128153958239
  0.3541346868877824  0.1598319398035812  0.8003978371665923
  0.8990140441907570  0.3875655396389632  0.4319593180875856
  0.6009863487272042  0.8875737850655128  0.5680546895866456
  0.1009863452106430  0.6124262155530715  0.5680546927135453
  0.3990140411588001  0.1124344589622908  0.4319593225189493
  0.8397013966309999  0.4884576160009999  0.0529753998014542
  0.6602805083192749  0.9884571467863097  0.9470255403366963
  0.1602805064852220  0.5115428556283703  0.9470255196160196
  0.3397013931627058  0.0115423813340740  0.0529753786409159
  0.8819245135797331  0.6223178729158150  0.8298315445610314
  0.6180948495867256  0.1223271184601344  0.1701646922049846
  0.1180948540740303  0.3776728856399032  0.1701646752556627
  0.3819245194212968  0.8776821228002660  0.8298315298878265
 
  0.00000000E+00  0.00000000E+00  0.00000000E+00
  0.00000000E+00  0.00000000E+00  0.00000000E+00
  0.00000000E+00  0.00000000E+00  0.00000000E+00
  0.00000000E+00  0.00000000E+00  0.00000000E+00
  0.00000000E+00  0.00000000E+00  0.00000000E+00
  0.00000000E+00  0.00000000E+00  0.00000000E+00
  0.00000000E+00  0.00000000E+00  0.00000000E+00
  0.00000000E+00  0.00000000E+00  0.00000000E+00
  0.00000000E+00  0.00000000E+00  0.00000000E+00
  0.00000000E+00  0.00000000E+00  0.00000000E+00
  0.00000000E+00  0.00000000E+00  0.00000000E+00
  0.00000000E+00  0.00000000E+00  0.00000000E+00
  0.00000000E+00  0.00000000E+00  0.00000000E+00
  0.00000000E+00  0.00000000E+00  0.00000000E+00
  0.00000000E+00  0.00000000E+00  0.00000000E+00
  0.00000000E+00  0.00000000E+00  0.00000000E+00
  0.00000000E+00  0.00000000E+00  0.00000000E+00
  0.00000000E+00  0.00000000E+00  0.00000000E+00
  0.00000000E+00  0.00000000E+00  0.00000000E+00
  0.00000000E+00  0.00000000E+00  0.00000000E+00
  0.00000000E+00  0.00000000E+00  0.00000000E+00
  0.00000000E+00  0.00000000E+00  0.00000000E+00
  0.00000000E+00  0.00000000E+00  0.00000000E+00
  0.00000000E+00  0.00000000E+00  0.00000000E+00
  0.00000000E+00  0.00000000E+00  0.00000000E+00
  0.00000000E+00  0.00000000E+00  0.00000000E+00
  0.00000000E+00  0.00000000E+00  0.00000000E+00
  0.00000000E+00  0.00000000E+00  0.00000000E+00
  0.00000000E+00  0.00000000E+00  0.00000000E+00
  0.00000000E+00  0.00000000E+00  0.00000000E+00
  0.00000000E+00  0.00000000E+00  0.00000000E+00
  0.00000000E+00  0.00000000E+00  0.00000000E+00
  0.00000000E+00  0.00000000E+00  0.00000000E+00
  0.00000000E+00  0.00000000E+00  0.00000000E+00
  0.00000000E+00  0.00000000E+00  0.00000000E+00
  0.00000000E+00  0.00000000E+00  0.00000000E+00
  0.00000000E+00  0.00000000E+00  0.00000000E+00
  0.00000000E+00  0.00000000E+00  0.00000000E+00
  0.00000000E+00  0.00000000E+00  0.00000000E+00
  0.00000000E+00  0.00000000E+00  0.00000000E+00
  0.00000000E+00  0.00000000E+00  0.00000000E+00
  0.00000000E+00  0.00000000E+00  0.00000000E+00
  0.00000000E+00  0.00000000E+00  0.00000000E+00
  0.00000000E+00  0.00000000E+00  0.00000000E+00
  0.00000000E+00  0.00000000E+00  0.00000000E+00
  0.00000000E+00  0.00000000E+00  0.00000000E+00
  0.00000000E+00  0.00000000E+00  0.00000000E+00
  0.00000000E+00  0.00000000E+00  0.00000000E+00
  0.00000000E+00  0.00000000E+00  0.00000000E+00
  0.00000000E+00  0.00000000E+00  0.00000000E+00
  0.00000000E+00  0.00000000E+00  0.00000000E+00
  0.00000000E+00  0.00000000E+00  0.00000000E+00
