Cr4 P12 O36
1.0
7.973521 0.000000 -2.248165
0.000000 15.185400 0.000000
0.000000 0.000000 6.193200
Cr P O
4 12 36
direct
0.881000 0.362200 0.118000 Cr3+
0.619000 0.862200 0.882000 Cr3+
0.119000 0.637800 0.882000 Cr3+
0.381000 0.137800 0.118000 Cr3+
0.514300 0.338400 0.209000 P5+
0.985700 0.838400 0.791000 P5+
0.485700 0.661600 0.791000 P5+
0.014300 0.161600 0.209000 P5+
0.790900 0.387200 0.585000 P5+
0.709100 0.887200 0.415000 P5+
0.209100 0.612800 0.415000 P5+
0.290900 0.112800 0.585000 P5+
0.778300 0.544500 0.853000 P5+
0.721700 0.044500 0.147000 P5+
0.221700 0.455500 0.147000 P5+
0.278300 0.955500 0.853000 P5+
0.610100 0.350000 0.462000 O2-
0.889900 0.850000 0.538000 O2-
0.389900 0.650000 0.538000 O2-
0.110100 0.150000 0.462000 O2-
0.405100 0.423600 0.161000 O2-
0.094900 0.923600 0.839000 O2-
0.594900 0.576400 0.839000 O2-
0.905100 0.076400 0.161000 O2-
0.748500 0.487700 0.632000 O2-
0.751500 0.987700 0.368000 O2-
0.251500 0.512300 0.368000 O2-
0.248500 0.012300 0.632000 O2-
0.407200 0.259800 0.182000 O2-
0.092800 0.759800 0.818000 O2-
0.592800 0.740200 0.818000 O2-
0.907200 0.240200 0.182000 O2-
0.634200 0.345400 0.068000 O2-
0.865800 0.845400 0.932000 O2-
0.365800 0.654600 0.932000 O2-
0.134200 0.154600 0.068000 O2-
0.853000 0.338300 0.800000 O2-
0.647000 0.838300 0.200000 O2-
0.147000 0.661700 0.200000 O2-
0.353000 0.161700 0.800000 O2-
0.900900 0.385800 0.424000 O2-
0.599100 0.885800 0.576000 O2-
0.099100 0.614200 0.576000 O2-
0.400900 0.114200 0.424000 O2-
0.841000 0.489000 0.058000 O2-
0.659000 0.989000 0.942000 O2-
0.159000 0.511000 0.942000 O2-
0.341000 0.011000 0.058000 O2-
0.885200 0.623000 0.826000 O2-
0.614800 0.123000 0.174000 O2-
0.114800 0.377000 0.174000 O2-
0.385200 0.877000 0.826000 O2-
