Ca1 Fe4 S6 O24
1.0
7.587746 0.164246 4.522660
2.640739 7.110308 4.547614
0.232486 0.192763 8.835858
Ca Fe S O
1 4 6 24
direct
0.341537 0.737909 0.568460 Ca
0.652861 0.641758 0.647589 Fe
0.137877 0.145701 0.142479 Fe
0.843028 0.846807 0.852250 Fe
0.356287 0.350979 0.348454 Fe
0.952274 0.249682 0.529830 S
0.453770 0.038435 0.744656 S
0.538598 0.961082 0.246709 S
0.747170 0.453651 0.043607 S
0.248212 0.535106 0.956166 S
0.045917 0.747036 0.458528 S
0.397523 0.583197 0.768020 O
0.924197 0.293861 0.039356 O
0.787240 0.407671 0.577339 O
0.055927 0.920724 0.296355 O
0.588262 0.775394 0.399629 O
0.311030 0.038002 0.931506 O
0.679183 0.955371 0.062403 O
0.214400 0.587675 0.415460 O
0.072845 0.698814 0.948176 O
0.401196 0.225928 0.598661 O
0.942869 0.070518 0.690868 O
0.598468 0.413130 0.229407 O
0.957930 0.246467 0.363751 O
0.463537 0.892147 0.703014 O
0.349347 0.990121 0.264346 O
0.690554 0.492162 0.894832 O
0.231656 0.367315 0.982999 O
0.876779 0.722226 0.505034 O
0.125448 0.262717 0.495062 O
0.639768 -0.001647 0.736850 O
0.525905 0.110630 0.282271 O
0.770456 0.619991 0.012413 O
0.296152 0.503525 0.106726 O
0.043334 0.755917 0.621674 O
