Nickel                                  
   1.00000000000000     
     3.4519306378735926    0.0000007199251646    0.0000000862991051
     0.0000007198699540    3.4519127763825099   -0.0000007533393782
     0.0000000785120506   -0.0000007514336001    3.4514473315607055
   Ni
     4
Direct
 -0.0000000531489904  0.0000001305613350 -0.0000004167842238
  0.0000000292333991  0.4999998809557047  0.5000003918935143
  0.5000000767522398 -0.0000001293702731  0.4999996355200059
  0.4999999471633514  0.5000001178532335  0.0000003893707036
 
  0.00000000E+00  0.00000000E+00  0.00000000E+00
  0.00000000E+00  0.00000000E+00  0.00000000E+00
  0.00000000E+00  0.00000000E+00  0.00000000E+00
  0.00000000E+00  0.00000000E+00  0.00000000E+00
