Ca1 Mn4 P6 O24                          
   1.00000000000000     
     2.8815510000000000    7.0981100000000001    3.7499989999999999
     1.0857829999999999    0.5919440000000000    8.4017619999999997
     7.6816659999999999    0.3085960000000000    3.5820219999999998
   Ca   Mn   P    O 
     1     4     6    24
Direct
  0.2545761942594487  0.8294789459132326  0.5636114961336948
  0.6426977703411874  0.6482977008840595  0.6396002220578878
  0.1364764018601803  0.1553022116500969  0.1346831030143175
  0.8481567256933737  0.8389072155043179  0.8609151020776231
  0.3640541321235690  0.3390821738201404  0.3625700250908793
  0.2586430172286511  0.5177558149476508  0.9558556730767718
  0.0196536029610287  0.7432158361259874  0.4744461422697887
  0.9715611117809229  0.2536658787066877  0.5140614963873666
  0.4448802259156667  0.0227870031640538  0.7589138340882345
  0.5583680673631398  0.9745699476485513  0.2302519075496940
  0.7398918081225198  0.4657557786289885  0.0518798918420529
  0.5861674750680952  0.7662116765599182  0.3992967943971921
  0.2846256564481596  0.0165855761746281  0.9597589061213898
  0.4335253674800522  0.5530021175573656  0.7626007500806831
  0.9246761168458683  0.2759544427343474  0.0499916919007049
  0.8046475660274044  0.4168477656616701  0.5880274426594216
  0.0580850106892715  0.9375998976772761  0.3435027753674693
  0.9476304413767657  0.0517054192525908  0.6580457325293460
  0.5676762282853128  0.4335810100739125  0.2405799960727660
  0.7202875526537260  0.9728900389276761  0.0342898069692674
  0.1945531325300790  0.5762332072713829  0.4102996416180325
  0.0853835924041075  0.7183883605832921  0.9230320750014955
  0.4042318355689569  0.2308989699078293  0.6004939164070575
  0.2297795600391650  0.3576160223859836  0.9510516412540642
  0.8287456563067059  0.7660552180574440  0.4800790635721827
  0.9829271479489380  0.2963664550347415  0.3093556459848258
  0.4485264583446458  0.8768143687068998  0.6997616814318657
  0.3568981022391495  0.0244304296503408  0.2292239640018479
  0.6913897897436441  0.5362836950817034  0.8706124625279040
  0.3003966688631139  0.4628629109749466  0.1325373584594537
  0.0100703002304685  0.6985499095382374  0.6819482530462101
  0.1712478896306546  0.2207265097341879  0.5055983444377392
  0.6449588987587148  0.9629111477507408  0.7663786156436885
  0.5519455807575742  0.1194920710229993  0.2883790056270717
  0.7720816039998087  0.6291983633695115  0.0504459559382296
 
             NaN             NaN             NaN
             NaN             NaN             NaN
             NaN             NaN             NaN
             NaN             NaN             NaN
             NaN             NaN             NaN
             NaN             NaN             NaN
             NaN             NaN             NaN
             NaN             NaN             NaN
             NaN             NaN             NaN
             NaN             NaN             NaN
             NaN             NaN             NaN
             NaN             NaN             NaN
             NaN             NaN             NaN
             NaN             NaN             NaN
             NaN             NaN             NaN
             NaN             NaN             NaN
             NaN             NaN             NaN
             NaN             NaN             NaN
             NaN             NaN             NaN
             NaN             NaN             NaN
             NaN             NaN             NaN
             NaN             NaN             NaN
             NaN             NaN             NaN
             NaN             NaN             NaN
             NaN             NaN             NaN
             NaN             NaN             NaN
             NaN             NaN             NaN
             NaN             NaN             NaN
             NaN             NaN             NaN
             NaN             NaN             NaN
             NaN             NaN             NaN
             NaN             NaN             NaN
             NaN             NaN             NaN
             NaN             NaN             NaN
             NaN             NaN             NaN
