Ca1 Mn4 P6 O24
1.0
2.881551 7.098110 3.749999
1.085783 0.591944 8.401762
7.681666 0.308596 3.582022
Ca Mn P O
1 4 6 24
direct
0.281085 0.804586 0.558974 Ca
0.642434 0.653526 0.639802 Mn
0.133993 0.157839 0.135864 Mn
0.848138 0.840794 0.862275 Mn
0.360568 0.341728 0.360824 Mn
0.256761 0.521979 0.953248 P
0.018652 0.745828 0.475883 P
0.970189 0.255417 0.516487 P
0.443863 0.026869 0.759457 P
0.555539 0.976922 0.230543 P
0.736443 0.468767 0.052904 P
0.585455 0.771016 0.400245 O
0.276917 0.028103 0.954515 O
0.429257 0.560430 0.759173 O
0.916775 0.277140 0.060513 O
0.812154 0.426702 0.580322 O
0.067797 0.931761 0.336297 O
0.939758 0.058707 0.663771 O
0.558469 0.445053 0.237485 O
0.721391 0.971153 0.038027 O
0.176302 0.568925 0.420031 O
0.081040 0.718926 0.927839 O
0.409392 0.231297 0.595783 O
0.225623 0.362201 0.952019 O
0.822301 0.777877 0.488205 O
0.980753 0.293985 0.313784 O
0.448865 0.877018 0.704416 O
0.357409 1.024173 0.226670 O
0.694711 0.532543 0.870573 O
0.299736 0.465740 0.129444 O
0.013608 0.705923 0.679206 O
0.170899 0.217985 0.505226 O
0.638381 -0.033817 0.776165 O
0.547752 0.125306 0.285800 O
0.771781 0.630198 0.048529 O
