Ca2 Co4 S6 O24                          
   1.00000000000000     
     7.6528559999999999    0.0544060000000000    4.4551610000000004
     2.6837510000000000    7.0090380000000003    4.5434919999999996
     0.2394890000000000   -0.0124870000000000    8.8357930000000007
   Ca   Co   S    O 
     2     4     6    24
Direct
  0.3701170232535282  0.6427761132899447  0.5129631225261748
  0.9907828370430994  0.0165481899881066 -0.0158053324036582
  0.6473629964356165  0.6413174783797378  0.6641953843972137
  0.1407436620128784  0.1524622115096148  0.1466833999161346
  0.8420381446393990  0.8575289340545016  0.8426566105155435
  0.3556121269794277  0.3514814223664724  0.3500093138923362
  0.9645208205521411  0.2459985742270826  0.5397467788740805
  0.4390633932763314  0.0464233446778858  0.7522761487519701
  0.5525466514315410  0.9560189115563629  0.2467455707830124
  0.7403306153729632  0.4545956970585509  0.0537919250079507
  0.2492809557619408  0.5466440335517705  0.9554648201151835
  0.0298684030582707  0.7618285688281067  0.4439774443715207
  0.4282910675296555  0.5347343773753157  0.7871830684947386
  0.8793381941732648  0.2592543352034687  0.1096808990342357
  0.8134840399577273  0.4310999256186659  0.5389359767904555
  0.0890193323827510  0.8965209484594295  0.2510211390495751
  0.5640684455552899  0.7905044452359595  0.4241762568811836
  0.2456623302121473  0.1041547785189598  0.8945628237908458
  0.7339777425287232  0.9095273203291010  0.0928012770269753
  0.1862547774734235  0.5738912791006289  0.4577729103202356
  0.1085706205900739  0.7385716177544662  0.8922630047662805
  0.4534109074861064  0.2114260339643564  0.5760425064691659
  0.9082822745077593  0.0995812500231169  0.7296721296970967
  0.5616654677224271  0.4795523320419907  0.2161093221096821
  0.9881803968288976  0.1952014174197601  0.3940621176051551
  0.4527517763937995  0.8851212066183414  0.7290336246638800
  0.3917358543631319  0.9727962190326673  0.2217163262222916
  0.7106543793590929  0.4641122499450690  0.8994883820777478
  0.1908291073460150  0.3978077589153755  0.9990947952446003
  0.8537379114368597  0.7572274820967629  0.4807610956025748
  0.1435158431601455  0.2400267115120279  0.5181716196989939
  0.5806078048095152  0.9911790250385797  0.8258764022247210
  0.5318669648155180  0.1265985127363219  0.2561129685384000
  0.8162521172219873  0.5971840401248850  0.9932700815224372
  0.2731245918362970  0.5341535334184550  0.1125577471088793
  0.0191382941721996  0.8175329565344981  0.5821244553194039
 
             NaN             NaN             NaN
             NaN             NaN             NaN
             NaN             NaN             NaN
             NaN             NaN             NaN
             NaN             NaN             NaN
             NaN             NaN             NaN
             NaN             NaN             NaN
             NaN             NaN             NaN
             NaN             NaN             NaN
             NaN             NaN             NaN
             NaN             NaN             NaN
             NaN             NaN             NaN
             NaN             NaN             NaN
             NaN             NaN             NaN
             NaN             NaN             NaN
             NaN             NaN             NaN
             NaN             NaN             NaN
             NaN             NaN             NaN
             NaN             NaN             NaN
             NaN             NaN             NaN
             NaN             NaN             NaN
             NaN             NaN             NaN
             NaN             NaN             NaN
             NaN             NaN             NaN
             NaN             NaN             NaN
             NaN             NaN             NaN
             NaN             NaN             NaN
             NaN             NaN             NaN
             NaN             NaN             NaN
             NaN             NaN             NaN
             NaN             NaN             NaN
             NaN             NaN             NaN
             NaN             NaN             NaN
             NaN             NaN             NaN
             NaN             NaN             NaN
             NaN             NaN             NaN
