Ca1 V4 S6 O24
1.0
7.472430 -0.075256 4.880078
2.371909 6.713402 5.313255
0.004497 -0.590545 8.922072
Ca V S O
1 4 6 24
direct
0.314320 0.780309 0.585485 Ca
0.652543 0.644607 0.650445 V
0.138439 0.143840 0.143000 V
0.845975 0.844606 0.849280 V
0.357331 0.352670 0.344484 V
0.958247 0.250459 0.527024 S
0.448241 0.038242 0.747095 S
0.541720 0.966398 0.239306 S
0.747124 0.449217 0.043911 S
0.245277 0.536291 0.958793 S
0.044524 0.745710 0.462020 S
0.403888 0.576074 0.777212 O
0.901134 0.275618 0.078611 O
0.808133 0.419853 0.558792 O
0.084178 0.899278 0.289133 O
0.579324 0.799008 0.407148 O
0.283305 0.077364 0.906879 O
0.692170 0.931776 0.070825 O
0.190954 0.568251 0.448908 O
0.076588 0.706135 0.935163 O
0.433642 0.200346 0.575825 O
0.933281 0.080317 0.693971 O
0.576118 0.444423 0.209931 O
0.964580 0.240000 0.366574 O
0.455917 0.877030 0.731349 O
0.356052 0.987656 0.258327 O
0.716971 0.474262 0.885888 O
0.226762 0.371310 0.984954 O
0.864357 0.749760 0.505864 O
0.140169 0.244379 0.493050 O
0.616705 -0.004000 0.768438 O
0.529769 0.132493 0.242441 O
0.787944 0.605813 0.004699 O
0.273694 0.511974 0.115904 O
0.041714 0.767436 0.616836 O
