Cr7 P6 O24                              
   1.00000000000000     
     8.8216703029709187   -0.0014783317854804   -2.9694997066168214
    -2.9609416598847416    7.2644895956894171   -1.4592685315827578
     0.0228601442569497    0.0005689757750442    6.2535748710073946
   Cr   P    O 
     7     6    24
Direct
  0.4999904317060668  0.4999972904390830  0.0000028862170751
  0.1931576778712341  0.6726903927669881  0.7086999517147845
  0.8065360973218816  0.3272060266390326  0.2910355578803916
  0.9756399770455957  0.7892323168868600  0.9527146461131721
  0.0243474156099097  0.2108593943659969  0.0472896840338066
  0.6095289926920842  0.9619378673543864  0.3808524746217614
  0.3904572685501506  0.0380411433762688  0.6191432878578027
  0.8642461412434699  0.7423653111903121  0.3946150193662632
  0.1357833488992242  0.2576692956229039  0.6053603645740537
  0.2620028321189380  0.6448776749568879  0.2242219321826724
  0.7379799624468930  0.3551334462000639  0.7757289756637107
  0.6650844095266493  0.9016078950540063  0.9032119726445202
  0.3349652229643283  0.0984043955783420  0.0968591912963532
  0.5796643977408067  0.9550084652638731  0.6824723440090139
  0.4203058716180834  0.0449439126934976  0.3176046191750928
  0.2601758021432943  0.7576289010796557  0.4529812252994674
  0.7397393271695307  0.2423137538477533  0.5469719640301989
  0.3398961355193748  0.9716820623915368  0.8836322235117251
  0.6603259470193947  0.0283740441565499  0.1165951298784691
  0.9906819552312953  0.7561458854730319  0.6362389460727016
  0.0093523675448708  0.2438641816479787  0.3637253223082695
  0.1479039253997172  0.6800564986567039  0.0076081126732390
  0.8520571803248060  0.3199287859470488  0.9923616043001786
  0.7969392736058438  0.5548869575268682  0.7955983758485488
  0.2030402372332603  0.4451114365467248  0.2043467603408828
  0.8445367341041461  0.9510329731621212  0.9247780889061872
  0.1554836420108145  0.0489717903443747  0.0751402760243423
  0.5826988765226275  0.7044791412710580  0.8765817805129856
  0.4174061689770312  0.2955531263355198  0.1236394486638162
  0.4356698897592821  0.7085278375828921  0.2234708965735877
  0.5643057146945267  0.2914474849181019  0.7764807936761855
  0.7770492099182178  0.8675215870213790  0.4418403352075657
  0.2229245049836308  0.1324012444905165  0.5582711487998679
  0.9630235971506522  0.7943183499751854  0.2503755554384597
  0.0369907959769762  0.2057849274718606  0.7496093943315572
  0.2660997542347658  0.4575172010595949  0.7308406653721988
  0.7340089131206469  0.5424770007050341  0.2690990448790913
 
  0.00000000E+00  0.00000000E+00  0.00000000E+00
  0.00000000E+00  0.00000000E+00  0.00000000E+00
  0.00000000E+00  0.00000000E+00  0.00000000E+00
  0.00000000E+00  0.00000000E+00  0.00000000E+00
  0.00000000E+00  0.00000000E+00  0.00000000E+00
  0.00000000E+00  0.00000000E+00  0.00000000E+00
  0.00000000E+00  0.00000000E+00  0.00000000E+00
  0.00000000E+00  0.00000000E+00  0.00000000E+00
  0.00000000E+00  0.00000000E+00  0.00000000E+00
  0.00000000E+00  0.00000000E+00  0.00000000E+00
  0.00000000E+00  0.00000000E+00  0.00000000E+00
  0.00000000E+00  0.00000000E+00  0.00000000E+00
  0.00000000E+00  0.00000000E+00  0.00000000E+00
  0.00000000E+00  0.00000000E+00  0.00000000E+00
  0.00000000E+00  0.00000000E+00  0.00000000E+00
  0.00000000E+00  0.00000000E+00  0.00000000E+00
  0.00000000E+00  0.00000000E+00  0.00000000E+00
  0.00000000E+00  0.00000000E+00  0.00000000E+00
  0.00000000E+00  0.00000000E+00  0.00000000E+00
  0.00000000E+00  0.00000000E+00  0.00000000E+00
  0.00000000E+00  0.00000000E+00  0.00000000E+00
  0.00000000E+00  0.00000000E+00  0.00000000E+00
  0.00000000E+00  0.00000000E+00  0.00000000E+00
  0.00000000E+00  0.00000000E+00  0.00000000E+00
  0.00000000E+00  0.00000000E+00  0.00000000E+00
  0.00000000E+00  0.00000000E+00  0.00000000E+00
  0.00000000E+00  0.00000000E+00  0.00000000E+00
  0.00000000E+00  0.00000000E+00  0.00000000E+00
  0.00000000E+00  0.00000000E+00  0.00000000E+00
  0.00000000E+00  0.00000000E+00  0.00000000E+00
  0.00000000E+00  0.00000000E+00  0.00000000E+00
  0.00000000E+00  0.00000000E+00  0.00000000E+00
  0.00000000E+00  0.00000000E+00  0.00000000E+00
  0.00000000E+00  0.00000000E+00  0.00000000E+00
  0.00000000E+00  0.00000000E+00  0.00000000E+00
  0.00000000E+00  0.00000000E+00  0.00000000E+00
  0.00000000E+00  0.00000000E+00  0.00000000E+00
