Cr7 P6 O24
1.0
8.864634 0.000000 -2.872428
-2.973806 7.273359 -1.524843
0.000000 0.000000 6.253200
Cr P O
7 6 24
direct
0.500000 0.500000 0.000000 Cr2+
0.196500 0.677900 0.712000 Cr2+
0.803500 0.322100 0.288000 Cr2+
0.974700 0.789700 0.953100 Cr3+
0.025300 0.210300 0.046900 Cr3+
0.608000 0.960800 0.378900 Cr3+
0.392000 0.039200 0.621100 Cr3+
0.864700 0.743500 0.396700 P5+
0.135300 0.256500 0.603300 P5+
0.260100 0.647600 0.223400 P5+
0.739900 0.352400 0.776600 P5+
0.664300 0.899400 0.899500 P5+
0.335700 0.100600 0.100500 P5+
0.578800 0.954000 0.681100 O2-
0.421200 0.046000 0.318900 O2-
0.261100 0.762000 0.453600 O2-
0.738900 0.238000 0.546400 O2-
0.341000 0.975000 0.885500 O2-
0.659000 0.025000 0.114500 O2-
0.991100 0.761700 0.638900 O2-
0.008900 0.238300 0.361100 O2-
0.146800 0.683500 0.009700 O2-
0.853200 0.316500 0.990300 O2-
0.800100 0.551500 0.797500 O2-
0.199900 0.448500 0.202500 O2-
0.844100 0.950200 0.921900 O2-
0.155900 0.049800 0.078100 O2-
0.582100 0.703500 0.869600 O2-
0.417900 0.296500 0.130400 O2-
0.432900 0.710800 0.221100 O2-
0.567100 0.289200 0.778900 O2-
0.772100 0.863200 0.438000 O2-
0.227900 0.136800 0.562000 O2-
0.962900 0.800300 0.252900 O2-
0.037100 0.199700 0.747100 O2-
0.257900 0.456200 0.724800 O2-
0.742100 0.543800 0.275200 O2-
