Ca1 V4 P6 O24                           
   1.00000000000000     
     2.5932750000000002    6.9659089999999999    4.5003869999999999
     0.2603880000000000    0.1690950000000000    8.7149970000000003
     7.4315980000000001    0.1520500000000000    4.5284630000000003
   Ca   V    P    O 
     1     4     6    24
Direct
  0.3798942830008730  0.6182906569026808  0.5157288257724211
  0.6492969365722868  0.6403095214665829  0.6461067392752856
  0.1378249843454745  0.1480615145577069  0.1434394805740197
  0.8461363654014283  0.8571725586387072  0.8584047583332499
  0.3490800414885167  0.3508380176057653  0.3627119392307027
  0.2477446479627217  0.5233813092033610  0.9706238178462759
  0.0203735109012932  0.7574507205694444  0.4560309970590304
  0.9639337706101738  0.2501661043084399  0.5309392245210569
  0.4609889630599063  0.0396252318670256  0.7492310158601294
  0.5347884251596015  0.9639458902619373  0.2492619194156018
  0.7407960165651329  0.4748057456366779  0.0417691137517727
  0.5866433477213052  0.7640273876323985  0.4128395381471412
  0.3008273842343782  0.0311458771695240  0.9461686501039015
  0.4039167933800614  0.5890419909604125  0.7770113872244918
  0.9405560720321042  0.3170060431349199  0.0305050191308969
  0.7662090149316022  0.3995215607652996  0.6005809759238644
  0.0183028888040130  0.9627556702371163  0.3069730823243720
  0.9794940383822794  0.0436635095082509  0.6753176879264757
  0.5816383283978688  0.4094341230441143  0.2292856217216717
  0.7014419689254716  0.9689477102981583  0.0557213243285272
  0.2219208535454603  0.6099743422460177  0.3885652532613551
  0.0511846256719140  0.6810459100806106  0.9541159196434382
  0.4068526439370588  0.2450483594343810  0.5957966077865671
  0.2667547518712478  0.3316165972782735  0.9830039893247751
  0.8691104421698523  0.7122690518879279  0.4685066395305459
  0.9929823850356490  0.2750416985175992  0.3304684060699732
  0.5004613337625778  0.8825870104043372  0.6918590644963073
  0.3494442265684693  0.9697660925850498  0.2593117277101597
  0.7047081840327921  0.5120220194158289  0.8664551204244427
  0.2775867508111025  0.5012234383771341  0.1366226062337992
  0.0052027421822680  0.7343566830070959  0.6503495696385801
  0.1261564219136851  0.2936633146898004  0.5117646244614571
  0.6512401675225501  1.0103731489874153  0.7544822089121276
  0.4975766147873413  0.1233016151579140  0.3013183133325603
  0.7222925492264085  0.6630253502813830  0.0315767119537708
 
             NaN             NaN             NaN
             NaN             NaN             NaN
             NaN             NaN             NaN
             NaN             NaN             NaN
             NaN             NaN             NaN
             NaN             NaN             NaN
             NaN             NaN             NaN
             NaN             NaN             NaN
             NaN             NaN             NaN
             NaN             NaN             NaN
             NaN             NaN             NaN
             NaN             NaN             NaN
             NaN             NaN             NaN
             NaN             NaN             NaN
             NaN             NaN             NaN
             NaN             NaN             NaN
             NaN             NaN             NaN
             NaN             NaN             NaN
             NaN             NaN             NaN
             NaN             NaN             NaN
             NaN             NaN             NaN
             NaN             NaN             NaN
             NaN             NaN             NaN
             NaN             NaN             NaN
             NaN             NaN             NaN
             NaN             NaN             NaN
             NaN             NaN             NaN
             NaN             NaN             NaN
             NaN             NaN             NaN
             NaN             NaN             NaN
             NaN             NaN             NaN
             NaN             NaN             NaN
             NaN             NaN             NaN
             NaN             NaN             NaN
             NaN             NaN             NaN
