Ca1 V4 P6 O24
1.0
2.593275 6.965909 4.500387
0.260388 0.169095 8.714997
7.431598 0.152050 4.528463
Ca V P O
1 4 6 24
direct
0.442083 0.600118 0.510995 Ca
0.645189 0.643948 0.643057 V
0.136985 0.141273 0.144587 V
0.849811 0.850279 0.858086 V
0.351714 0.350833 0.353743 V
0.250290 0.526205 0.960606 P
0.035068 0.745033 0.468236 P
0.959480 0.249997 0.527660 P
0.461409 0.031698 0.747893 P
0.531890 0.964823 0.245092 P
0.746422 0.464737 0.037936 P
0.595804 0.765926 0.402453 O
0.306143 0.028958 0.944854 O
0.402916 0.583901 0.760282 O
0.943433 0.303745 0.022570 O
0.768418 0.406929 0.590060 O
0.035694 0.945104 0.307004 O
0.964837 0.051889 0.685713 O
0.591048 0.401229 0.231940 O
0.688351 0.973354 0.046447 O
0.227808 0.590611 0.403606 O
0.052434 0.690402 0.959773 O
0.412880 0.233034 0.590761 O
0.248686 0.337364 0.991331 O
0.868575 0.712119 0.493933 O
0.971584 0.265733 0.338571 O
0.480367 0.879033 0.696858 O
0.340444 -0.020982 0.263934 O
0.692814 0.511271 0.870729 O
0.296369 0.502241 0.118769 O
0.020821 0.732212 0.655712 O
0.128182 0.287115 0.497853 O
0.658891 0.990489 0.745812 O
0.501498 0.124456 0.293982 O
0.739166 0.646283 0.030309 O
