Ca12 Si12 O36                           
   1.00000000000000     
    15.3432703454575119   -0.0000000012564123   -1.4334803932931053
    -0.0000000019725043    7.3219392795829892    0.0000000076785967
    -0.0041282946795220    0.0000000143249561    7.0751679075120313
   Ca   Si   O 
    12    12    36
Direct
  0.7476476941881458  0.1256718805510246  0.9714799904466744
  0.7523521125160428  0.6256717941576611  0.0285203724681082
  0.2523521116840115  0.8743282054897463  0.0285203884330230
  0.2476476946467514  0.3743281210217191  0.9714800079766164
  0.8995675573009407  0.8719039741785934  0.7382655574731558
  0.6004318796538897  0.3719044009916388  0.2617339508236398
  0.1004318808487810  0.1280955968333615  0.2617339579567499
  0.3995675587028487  0.6280960275251815  0.7382655650586898
  0.8983129860519128  0.3780261294099105  0.7365892186846636
  0.6016861281808445  0.8780260272547693  0.2634100937787167
  0.1016861272117779  0.6219739750978022  0.2634101035248051
  0.3983129857758243  0.1219738713994403  0.7365892297227603
  0.9073622576098117  0.4087852504169120  0.2311502728524815
  0.5926378696969152  0.9087854419124710  0.7688495747074811
  0.0926378685371247  0.5912145637699169  0.7688496059649168
  0.4073622568501136  0.0912147441203928  0.2311503054794599
  0.9074819691982370  0.8423320580755842  0.2310246963091416
  0.5925179821589239  0.3423320261099860  0.7689752419510612
  0.0925179808527545  0.1576679746842231  0.7689752517242852
  0.4074819675583967  0.6576679414179694  0.2310247072276681
  0.8012031834770426  0.1246712418728535  0.4436633853335579
  0.6987968348236535  0.6246713470914784  0.5563362643843135
  0.1987968315885809  0.8753286506415776  0.5563362797512426
  0.3012031800775574  0.3753287587628193  0.4436634022749431
  0.7988224880573043  0.1259682103299866  0.6701653774782343
  0.7011772922934938  0.6259673152088965  0.3298342767743705
  0.2011772911152718  0.8740326759033294  0.3298342949270250
  0.2988224863065980  0.3740317974647880  0.6701653972947312
  0.7140443784939876  0.1250167283942858  0.3007102788114722
  0.7859560843853615  0.6250176475112497  0.6992890335862469
  0.2859560815639597  0.8749823484645489  0.6992890486558991
  0.2140443760274380  0.3749832740912780  0.3007102938713615
  0.8493536259715952  0.3627911993444286  0.0352340891143186
  0.6506463435812151  0.8627913317577836  0.9647659268758559
  0.1506463467223398  0.6372086751045885  0.9647659511052566
  0.3493536291720929  0.1372087956392605  0.0352341145888246
  0.8481215896363281  0.8876564615327922  0.0361756735864347
  0.6518782090889701  0.3876564234498332  0.9638246162460575
  0.1518782058711210  0.1123435660027496  0.9638246267095880
  0.3481215863987757  0.6123435497186946  0.0361756831757631
  0.0095788349276376  0.3727912045042174  0.2369051551317725
  0.4904212917736004  0.8727918613457959  0.7630946928583242
  0.9904212917216242  0.6272081417845712  0.7630947481893671
  0.5095788352134321  0.1272087911534427  0.2369052109876222
  0.0091078188772116  0.8789715909027649  0.2348437516015025
  0.4908922228349297  0.3789734811319860  0.7651559040630573
  0.9908922213644047  0.1210265167267224  0.7651558970957026
  0.5091078168154084  0.6210284105630350  0.2348437469024276
  0.8639614011432215  0.3038123920589157  0.4059645539535239
  0.6360389696659965  0.8038127402992643  0.5940355342220229
  0.1360389614120265  0.6961872630592083  0.5940355505810615
  0.3639613937154422  0.1961876043485873  0.4059645723095997
  0.8636070229241639  0.9455143040926401  0.4069079242010574
  0.6363937278892209  0.4455131366899749  0.5930942912579269
  0.1363937291530846  0.0544868724572822  0.5930942972236366
  0.3636070238045477  0.5544856857982623  0.4069079313462254
  0.8903100448713559  0.6251546159581380  0.2739518961236200
  0.6096902193724461  0.1251548520702883  0.7260481441808793
  0.1096902167047986  0.3748451533693213  0.7260481681805544
  0.3903100419387258  0.8748453789800550  0.2739519224805349
 
  0.00000000E+00  0.00000000E+00  0.00000000E+00
  0.00000000E+00  0.00000000E+00  0.00000000E+00
  0.00000000E+00  0.00000000E+00  0.00000000E+00
  0.00000000E+00  0.00000000E+00  0.00000000E+00
  0.00000000E+00  0.00000000E+00  0.00000000E+00
  0.00000000E+00  0.00000000E+00  0.00000000E+00
  0.00000000E+00  0.00000000E+00  0.00000000E+00
  0.00000000E+00  0.00000000E+00  0.00000000E+00
  0.00000000E+00  0.00000000E+00  0.00000000E+00
  0.00000000E+00  0.00000000E+00  0.00000000E+00
  0.00000000E+00  0.00000000E+00  0.00000000E+00
  0.00000000E+00  0.00000000E+00  0.00000000E+00
  0.00000000E+00  0.00000000E+00  0.00000000E+00
  0.00000000E+00  0.00000000E+00  0.00000000E+00
  0.00000000E+00  0.00000000E+00  0.00000000E+00
  0.00000000E+00  0.00000000E+00  0.00000000E+00
  0.00000000E+00  0.00000000E+00  0.00000000E+00
  0.00000000E+00  0.00000000E+00  0.00000000E+00
  0.00000000E+00  0.00000000E+00  0.00000000E+00
  0.00000000E+00  0.00000000E+00  0.00000000E+00
  0.00000000E+00  0.00000000E+00  0.00000000E+00
  0.00000000E+00  0.00000000E+00  0.00000000E+00
  0.00000000E+00  0.00000000E+00  0.00000000E+00
  0.00000000E+00  0.00000000E+00  0.00000000E+00
  0.00000000E+00  0.00000000E+00  0.00000000E+00
  0.00000000E+00  0.00000000E+00  0.00000000E+00
  0.00000000E+00  0.00000000E+00  0.00000000E+00
  0.00000000E+00  0.00000000E+00  0.00000000E+00
  0.00000000E+00  0.00000000E+00  0.00000000E+00
  0.00000000E+00  0.00000000E+00  0.00000000E+00
  0.00000000E+00  0.00000000E+00  0.00000000E+00
  0.00000000E+00  0.00000000E+00  0.00000000E+00
  0.00000000E+00  0.00000000E+00  0.00000000E+00
  0.00000000E+00  0.00000000E+00  0.00000000E+00
  0.00000000E+00  0.00000000E+00  0.00000000E+00
  0.00000000E+00  0.00000000E+00  0.00000000E+00
  0.00000000E+00  0.00000000E+00  0.00000000E+00
  0.00000000E+00  0.00000000E+00  0.00000000E+00
  0.00000000E+00  0.00000000E+00  0.00000000E+00
  0.00000000E+00  0.00000000E+00  0.00000000E+00
  0.00000000E+00  0.00000000E+00  0.00000000E+00
  0.00000000E+00  0.00000000E+00  0.00000000E+00
  0.00000000E+00  0.00000000E+00  0.00000000E+00
  0.00000000E+00  0.00000000E+00  0.00000000E+00
  0.00000000E+00  0.00000000E+00  0.00000000E+00
  0.00000000E+00  0.00000000E+00  0.00000000E+00
  0.00000000E+00  0.00000000E+00  0.00000000E+00
  0.00000000E+00  0.00000000E+00  0.00000000E+00
  0.00000000E+00  0.00000000E+00  0.00000000E+00
  0.00000000E+00  0.00000000E+00  0.00000000E+00
  0.00000000E+00  0.00000000E+00  0.00000000E+00
  0.00000000E+00  0.00000000E+00  0.00000000E+00
  0.00000000E+00  0.00000000E+00  0.00000000E+00
  0.00000000E+00  0.00000000E+00  0.00000000E+00
  0.00000000E+00  0.00000000E+00  0.00000000E+00
  0.00000000E+00  0.00000000E+00  0.00000000E+00
  0.00000000E+00  0.00000000E+00  0.00000000E+00
  0.00000000E+00  0.00000000E+00  0.00000000E+00
  0.00000000E+00  0.00000000E+00  0.00000000E+00
  0.00000000E+00  0.00000000E+00  0.00000000E+00
