Ca2 Fe4 S6 O24                          
   1.00000000000000     
     7.6562075025760956    0.1632706601516093    4.6166067151214563
     2.5974647718156998    7.2579396341084976    4.5235061138386898
     0.1267122464025842    0.2084051669560484    8.8366995473333070
   Ca   Fe   S    O 
     2     4     6    24
Direct
  0.9769952902890324  0.0535160245276671  0.9595111191627623
  0.4037076096312830  0.7326354691721093  0.1305086952291177
  0.6486382554515799  0.6246482389060546  0.6441490346224015
  0.1620488058692970  0.1622011457076198  0.1406024263358248
  0.8533698285599627  0.8527386418532998  0.8438015473302869
  0.3323733526885135  0.3380722244873198  0.3618343621737665
  0.9510943021958838  0.2495883449706611  0.5453071793685211
  0.4610782600524459  0.0204877961662575  0.7537766693035053
  0.5406021572971582  0.9638039770273537  0.2414175067173616
  0.7565556907252784  0.4307743795645536  0.0385731301387935
  0.2399831363436462  0.5743835704988882  0.9521324874594868
  0.0393140078688248  0.7428288019679599  0.4529164503920242
  0.4144415768348750  0.5521632410037114  0.7919255576183630
  0.9153214286696709  0.2686849140159424  0.0906756564575346
  0.8067568210484737  0.4304528479442098  0.5014925572998266
  0.0779738894190913  0.8926849598051305  0.2594593487142802
  0.5314504947324750  0.8408942808563253  0.4335096511329652
  0.2706212958628953  0.0770466338250131  0.9020130459608708
  0.7335598601517361  0.9131212564627944  0.1043627397286784
  0.2150740320765934  0.5773355030411764  0.4368190274133923
  0.0999347618771225  0.7651085440572203  0.8951449660308199
  0.4628750686488701  0.1470258981206740  0.5655715271891069
  0.8715390354134200  0.1194814682667698  0.7341636139305550
  0.5826441962612350  0.4186554989508551  0.2041448144486395
  0.0347294328185512  0.1668675379136459  0.4021973690119793
  0.4896524366691466  0.8270197183552810  0.7893080005909141
  0.4130600334094794  0.9483547210800225  0.1933891620780415
  0.7553163694224310  0.4157525493300156  0.8812966846239405
  0.1622521184750454  0.4342732231957669  0.0171021856248643
  0.8808801483238184  0.7060783190714943  0.4915929106884178
  0.0987365761064467  0.2618153907447152  0.5659447478937523
  0.5986770121004170  0.0134737615587923  0.8005996040960781
  0.4800789131382004  0.1606764435322461  0.2146565566594276
  0.7652672265323233  0.6115977730027780  0.9884554975332165
  0.2693481700388887  0.5641840119966233  0.1082782234631807
  0.0105484049959301  0.8001728890190876  0.5939659435773734
 
  0.00000000E+00  0.00000000E+00  0.00000000E+00
  0.00000000E+00  0.00000000E+00  0.00000000E+00
  0.00000000E+00  0.00000000E+00  0.00000000E+00
  0.00000000E+00  0.00000000E+00  0.00000000E+00
  0.00000000E+00  0.00000000E+00  0.00000000E+00
  0.00000000E+00  0.00000000E+00  0.00000000E+00
  0.00000000E+00  0.00000000E+00  0.00000000E+00
  0.00000000E+00  0.00000000E+00  0.00000000E+00
  0.00000000E+00  0.00000000E+00  0.00000000E+00
  0.00000000E+00  0.00000000E+00  0.00000000E+00
  0.00000000E+00  0.00000000E+00  0.00000000E+00
  0.00000000E+00  0.00000000E+00  0.00000000E+00
  0.00000000E+00  0.00000000E+00  0.00000000E+00
  0.00000000E+00  0.00000000E+00  0.00000000E+00
  0.00000000E+00  0.00000000E+00  0.00000000E+00
  0.00000000E+00  0.00000000E+00  0.00000000E+00
  0.00000000E+00  0.00000000E+00  0.00000000E+00
  0.00000000E+00  0.00000000E+00  0.00000000E+00
  0.00000000E+00  0.00000000E+00  0.00000000E+00
  0.00000000E+00  0.00000000E+00  0.00000000E+00
  0.00000000E+00  0.00000000E+00  0.00000000E+00
  0.00000000E+00  0.00000000E+00  0.00000000E+00
  0.00000000E+00  0.00000000E+00  0.00000000E+00
  0.00000000E+00  0.00000000E+00  0.00000000E+00
  0.00000000E+00  0.00000000E+00  0.00000000E+00
  0.00000000E+00  0.00000000E+00  0.00000000E+00
  0.00000000E+00  0.00000000E+00  0.00000000E+00
  0.00000000E+00  0.00000000E+00  0.00000000E+00
  0.00000000E+00  0.00000000E+00  0.00000000E+00
  0.00000000E+00  0.00000000E+00  0.00000000E+00
  0.00000000E+00  0.00000000E+00  0.00000000E+00
  0.00000000E+00  0.00000000E+00  0.00000000E+00
  0.00000000E+00  0.00000000E+00  0.00000000E+00
  0.00000000E+00  0.00000000E+00  0.00000000E+00
  0.00000000E+00  0.00000000E+00  0.00000000E+00
  0.00000000E+00  0.00000000E+00  0.00000000E+00
