Ca2 Cr4 S6 O24                          
   1.00000000000000     
     7.7535077201854934   -0.2546907736895124    4.5021039122324549
     2.2927036347351351    7.4107259238220893    4.4985582267720474
     0.2000020019654557    0.1482059554840822    8.9289576008025406
   Ca   Cr   S    O 
     2     4     6    24
Direct
  0.3834630145265407  0.7528797417978126  0.1236946122592215
  0.7438310815354825  0.1101876002557205  0.3719093003375846
  0.6472350326437777  0.6215985566082409  0.6432288130958455
  0.1600832341826788  0.1575988760520133  0.1570121667991344
  0.8734961255141300  0.8470495509018079  0.8537058192429896
  0.3385683411575400  0.3363643187087462  0.3384278847578912
  0.9386735124538319  0.2406337740377538  0.5384166765193186
  0.4431684760244821  0.0525457401233282  0.7476402352001372
  0.5804523929904519  0.9145357157712652  0.2481487532807307
  0.7347110240551871  0.4637647567670271  0.0324670806945235
  0.2542626598613182  0.5574678391446071  0.9569225221550539
  0.0312054614758566  0.7601078083219903  0.4638093668600689
  0.4175205156578699  0.5385095437957261  0.7924042788111549
  0.8892415942224545  0.3187062265313401  0.0648927250297149
  0.7711085167934328  0.3720919890026977  0.5793436969385013
  0.0776254442729112  0.9203440185471337  0.2785915711516367
  0.5874997435637610  0.7467798972311641  0.4126675572452783
  0.3136912357776893  0.0982012886452068  0.9152518173339388
  0.7492027274201263  0.9044218728322448  0.0854215132785399
  0.1760713047894171  0.6054516554388698  0.4314837171176080
  0.1250355530465228  0.7263567951431043  0.9133852054264864
  0.3977785363943056  0.1817645020913901  0.5798745978776125
  0.9547619201937607  0.0781001900275697  0.7045430637386048
  0.5746786928114531  0.4178401231368696  0.2177808132907231
  0.9523750455659368  0.1886609738825982  0.3942947612908512
  0.4418712344232958  0.8685259731275679  0.7970019338528971
  0.4282952032124214  0.9415541139349557  0.2069279717876285
  0.7071277348680169  0.4768207613265218  0.8798993027133122
  0.1745460382011501  0.4068592616962476  0.0435875377129022
  0.8531594024471900  0.7590291712191970  0.4935027682515383
  0.0909266497755041  0.3177937436049376  0.4520473646734047
  0.6270737695756310  0.0536503162440454  0.6985810816174691
  0.5547540136041960  0.0673666710161811  0.2875154513217666
  0.7360548480230165  0.6419718345295209  0.0020122035599712
  0.3055465314312400  0.5438430767543778  0.1014972372125769
  0.0176033875074211  0.7874217217502277  0.6168085975634341
 
  0.00000000E+00  0.00000000E+00  0.00000000E+00
  0.00000000E+00  0.00000000E+00  0.00000000E+00
  0.00000000E+00  0.00000000E+00  0.00000000E+00
  0.00000000E+00  0.00000000E+00  0.00000000E+00
  0.00000000E+00  0.00000000E+00  0.00000000E+00
  0.00000000E+00  0.00000000E+00  0.00000000E+00
  0.00000000E+00  0.00000000E+00  0.00000000E+00
  0.00000000E+00  0.00000000E+00  0.00000000E+00
  0.00000000E+00  0.00000000E+00  0.00000000E+00
  0.00000000E+00  0.00000000E+00  0.00000000E+00
  0.00000000E+00  0.00000000E+00  0.00000000E+00
  0.00000000E+00  0.00000000E+00  0.00000000E+00
  0.00000000E+00  0.00000000E+00  0.00000000E+00
  0.00000000E+00  0.00000000E+00  0.00000000E+00
  0.00000000E+00  0.00000000E+00  0.00000000E+00
  0.00000000E+00  0.00000000E+00  0.00000000E+00
  0.00000000E+00  0.00000000E+00  0.00000000E+00
  0.00000000E+00  0.00000000E+00  0.00000000E+00
  0.00000000E+00  0.00000000E+00  0.00000000E+00
  0.00000000E+00  0.00000000E+00  0.00000000E+00
  0.00000000E+00  0.00000000E+00  0.00000000E+00
  0.00000000E+00  0.00000000E+00  0.00000000E+00
  0.00000000E+00  0.00000000E+00  0.00000000E+00
  0.00000000E+00  0.00000000E+00  0.00000000E+00
  0.00000000E+00  0.00000000E+00  0.00000000E+00
  0.00000000E+00  0.00000000E+00  0.00000000E+00
  0.00000000E+00  0.00000000E+00  0.00000000E+00
  0.00000000E+00  0.00000000E+00  0.00000000E+00
  0.00000000E+00  0.00000000E+00  0.00000000E+00
  0.00000000E+00  0.00000000E+00  0.00000000E+00
  0.00000000E+00  0.00000000E+00  0.00000000E+00
  0.00000000E+00  0.00000000E+00  0.00000000E+00
  0.00000000E+00  0.00000000E+00  0.00000000E+00
  0.00000000E+00  0.00000000E+00  0.00000000E+00
  0.00000000E+00  0.00000000E+00  0.00000000E+00
  0.00000000E+00  0.00000000E+00  0.00000000E+00
