Fe6 P18 O54                             
   1.00000000000000     
    -0.0053144120556918    0.0002199793656038   -9.4162289632646079
    10.5169532824225787    0.0002132605525125    1.5041832707761360
    -5.2560447583347738   -9.5534131974534819    3.9562455460045274
   Fe   P    O 
     6    18    54
Direct
  0.3534699814817941  0.9250280892247673  0.1574666590376523
  0.6949532337902937  0.7664773080046103  0.8414302180963347
  0.0338665519235519  0.0710807271478018  0.4883635223532465
  0.0453905651720845  0.5833185833762684  0.5126508482479011
  0.3635775839871798  0.4385430775641197  0.1783909890506905
  0.6851004812745956  0.2596072492617338  0.8217156379492749
  0.4291716716850686  0.6785884665096447  0.9372309613191518
  0.9918443366928145  0.7413798128546816  0.0627113028291859
  0.7748933016526180  0.0001203915553631  0.6030006976276212
  0.6718550081865118  0.3970895693974796  0.3968694639247659
  0.3297548705069246  0.0563750475349138  0.7250101718009319
  0.1048057335577894  0.3317776791922071  0.2752195592102069
  0.7844567659364188  0.1317088754969049  0.0396818318331356
  0.2446203543858090  0.0922725143673091  0.9603375269063932
  0.4570365270352283  0.7844077798948419  0.3721602053531115
  0.5848478431052158  0.4118305687352475  0.6276373980196581
  0.6099001740854249  0.5180001579925104  0.0539482118637196
  0.0557738584971617  0.4640577330552560  0.9460482365657512
  0.9358123287661826  0.7158923358627618  0.2904037429927087
  0.1452976594842994  0.4255342600099539  0.7097997965723906
  0.4040258067647642  0.7793659710936751  0.6091134858123297
  0.2949021108914280  0.1702079056778487  0.3906844394071456
  0.7291305613767918  0.1128533612997416  0.2728557972028867
  0.9560735078121283  0.8402325577949199  0.7273514601698992
  0.0125812184409924  0.7022465797955206  0.1848991557370070
  0.3275584691703912  0.5173473097700452  0.8151540467236416
  0.3589142946209947  0.8178059871721928  0.2654959222038400
  0.5933166937777727  0.5519242649655069  0.7343437711420719
  0.5884666298932117  0.9854480068669318  0.2171422763473885
  0.8710442481578298  0.7682242335717078  0.7827305409949972
  0.9179080189823594  0.8613141333990413  0.3516231022417600
  0.0659792558610874  0.5097465655034767  0.6486974817001823
  0.8089071965576267  0.5082954412296630  0.4206334627359638
  0.8884978272971225  0.0875540047128496  0.5795134222387048
  0.4889474818142219  0.4302041346051197  0.0707076036503906
  0.9181371014431789  0.3593865984099693  0.9291850198087772
  0.7644172028084739  0.5987823854325711  0.1974528079176139
  0.0667281851079125  0.4010478163557138  0.8024745099739405
  0.1216947981845493  0.8729777633884908  0.1087338366012887
  0.5127195829505524  0.7641393658988775  0.8910353250913943
  0.0306073641583566  0.6670572964586512  0.3848402413510570
  0.1460892467504351  0.2824671891746746  0.6153694418476761
  0.6218955047100820  0.9094899547600761  0.4591731437610278
  0.6626632897262965  0.4500731653792371  0.5407080265011430
  0.2245237127685016  0.4378010770427849  0.2741628304466630
  0.4503291759953711  0.1633251807034952  0.7258089726912473
  0.2333599366896735  0.2350828215194269  0.0439977067200203
  0.6892179754074093  0.1908335953178337  0.9560643734423735
  0.5576855659567599  0.6510325864277675  0.0459707998129133
  0.0115671052219142  0.6049583154569120  0.9539024912723661
  0.4870782854170201  0.6424294653423175  0.3254622764888495
  0.6614790464784335  0.3166410115280840  0.6744844080084818
  0.3790461809761467  0.8040271725192270  0.4778909893261840
  0.4011503280243502  0.3261080450782572  0.5219864751623504
  0.1720754795685693  0.2083073709104397  0.2894513919409221
  0.3828450632165215  0.9187302664534656  0.7107656384423251
  0.7137027942980865  0.2534765731239403  0.3799020997305291
  0.8336289445944587  0.8734603120542346  0.6200190174039335
  0.5137276950980407  0.3640791492407729  0.2847466893726747
  0.7287740134589740  0.0791163967447446  0.7150609501584171
  0.2133730825870614  0.5039403525470405  0.0619392683448368
  0.6514638200215188  0.4418840925402350  0.9379862297688106
  0.2047829314762595  0.0770858381831374  0.4263197645323018
  0.2783034332697127  0.6507732453466488  0.5737738375572121
  0.3239636936111197  0.7419587917447998  0.9972861521467706
  0.8266150521990028  0.7447092066892296  0.0025035917042615
  0.3972689563260232  0.1087242210905757  0.3254354511675999
  0.5716348907785544  0.7829134782534339  0.6741049072814320
  0.8896284066957634  0.1036198925063587  0.3390254491336506
  0.0507100003036172  0.7649121301372048  0.6615354436492069
  0.0406404449450051  0.3914752819795666  0.3787123120162263
  0.1619905881949819  0.0124618844495501  0.6216101602648720
  0.9620433559652994  0.2384985787228686  0.1243535926473314
  0.3377482549676145  0.1140962319593797  0.8757505889684438
  0.7197695085921794  0.1523204843440453  0.1530999130020305
  0.0664192399831194  0.9994658200792301  0.8470957430355597
  0.3186232890898779  0.0144770123426383  0.0324361353487816
  0.7861953193575530  0.9817918978654845  0.9673590462944404
 
  0.00000000E+00  0.00000000E+00  0.00000000E+00
  0.00000000E+00  0.00000000E+00  0.00000000E+00
  0.00000000E+00  0.00000000E+00  0.00000000E+00
  0.00000000E+00  0.00000000E+00  0.00000000E+00
  0.00000000E+00  0.00000000E+00  0.00000000E+00
  0.00000000E+00  0.00000000E+00  0.00000000E+00
  0.00000000E+00  0.00000000E+00  0.00000000E+00
  0.00000000E+00  0.00000000E+00  0.00000000E+00
  0.00000000E+00  0.00000000E+00  0.00000000E+00
  0.00000000E+00  0.00000000E+00  0.00000000E+00
  0.00000000E+00  0.00000000E+00  0.00000000E+00
  0.00000000E+00  0.00000000E+00  0.00000000E+00
  0.00000000E+00  0.00000000E+00  0.00000000E+00
  0.00000000E+00  0.00000000E+00  0.00000000E+00
  0.00000000E+00  0.00000000E+00  0.00000000E+00
  0.00000000E+00  0.00000000E+00  0.00000000E+00
  0.00000000E+00  0.00000000E+00  0.00000000E+00
  0.00000000E+00  0.00000000E+00  0.00000000E+00
  0.00000000E+00  0.00000000E+00  0.00000000E+00
  0.00000000E+00  0.00000000E+00  0.00000000E+00
  0.00000000E+00  0.00000000E+00  0.00000000E+00
  0.00000000E+00  0.00000000E+00  0.00000000E+00
  0.00000000E+00  0.00000000E+00  0.00000000E+00
  0.00000000E+00  0.00000000E+00  0.00000000E+00
  0.00000000E+00  0.00000000E+00  0.00000000E+00
  0.00000000E+00  0.00000000E+00  0.00000000E+00
  0.00000000E+00  0.00000000E+00  0.00000000E+00
  0.00000000E+00  0.00000000E+00  0.00000000E+00
  0.00000000E+00  0.00000000E+00  0.00000000E+00
  0.00000000E+00  0.00000000E+00  0.00000000E+00
  0.00000000E+00  0.00000000E+00  0.00000000E+00
  0.00000000E+00  0.00000000E+00  0.00000000E+00
  0.00000000E+00  0.00000000E+00  0.00000000E+00
  0.00000000E+00  0.00000000E+00  0.00000000E+00
  0.00000000E+00  0.00000000E+00  0.00000000E+00
  0.00000000E+00  0.00000000E+00  0.00000000E+00
  0.00000000E+00  0.00000000E+00  0.00000000E+00
  0.00000000E+00  0.00000000E+00  0.00000000E+00
  0.00000000E+00  0.00000000E+00  0.00000000E+00
  0.00000000E+00  0.00000000E+00  0.00000000E+00
  0.00000000E+00  0.00000000E+00  0.00000000E+00
  0.00000000E+00  0.00000000E+00  0.00000000E+00
  0.00000000E+00  0.00000000E+00  0.00000000E+00
  0.00000000E+00  0.00000000E+00  0.00000000E+00
  0.00000000E+00  0.00000000E+00  0.00000000E+00
  0.00000000E+00  0.00000000E+00  0.00000000E+00
  0.00000000E+00  0.00000000E+00  0.00000000E+00
  0.00000000E+00  0.00000000E+00  0.00000000E+00
  0.00000000E+00  0.00000000E+00  0.00000000E+00
  0.00000000E+00  0.00000000E+00  0.00000000E+00
  0.00000000E+00  0.00000000E+00  0.00000000E+00
  0.00000000E+00  0.00000000E+00  0.00000000E+00
  0.00000000E+00  0.00000000E+00  0.00000000E+00
  0.00000000E+00  0.00000000E+00  0.00000000E+00
  0.00000000E+00  0.00000000E+00  0.00000000E+00
  0.00000000E+00  0.00000000E+00  0.00000000E+00
  0.00000000E+00  0.00000000E+00  0.00000000E+00
  0.00000000E+00  0.00000000E+00  0.00000000E+00
  0.00000000E+00  0.00000000E+00  0.00000000E+00
  0.00000000E+00  0.00000000E+00  0.00000000E+00
  0.00000000E+00  0.00000000E+00  0.00000000E+00
  0.00000000E+00  0.00000000E+00  0.00000000E+00
  0.00000000E+00  0.00000000E+00  0.00000000E+00
  0.00000000E+00  0.00000000E+00  0.00000000E+00
  0.00000000E+00  0.00000000E+00  0.00000000E+00
  0.00000000E+00  0.00000000E+00  0.00000000E+00
  0.00000000E+00  0.00000000E+00  0.00000000E+00
  0.00000000E+00  0.00000000E+00  0.00000000E+00
  0.00000000E+00  0.00000000E+00  0.00000000E+00
  0.00000000E+00  0.00000000E+00  0.00000000E+00
  0.00000000E+00  0.00000000E+00  0.00000000E+00
  0.00000000E+00  0.00000000E+00  0.00000000E+00
  0.00000000E+00  0.00000000E+00  0.00000000E+00
  0.00000000E+00  0.00000000E+00  0.00000000E+00
  0.00000000E+00  0.00000000E+00  0.00000000E+00
  0.00000000E+00  0.00000000E+00  0.00000000E+00
  0.00000000E+00  0.00000000E+00  0.00000000E+00
  0.00000000E+00  0.00000000E+00  0.00000000E+00
