Ca2 Si4 Ni2 O12                         
   1.00000000000000     
     0.0048655794846778   -0.0000000037502857    5.2282129063717955
    -4.6826724795981631    4.4347376594864016    1.3246244463764927
    -4.6826725642820533   -4.4347377523469751    1.3246244465936534
   Ca   Si   Ni   O 
     2     4     2    12
Direct
  0.7499973026781106  0.7017427619552663  0.2982521000832818
  0.2499973004473759  0.2982521055161129  0.7017427562104359
  0.7267875776987154  0.6199428190338665  0.8062951213755554
  0.7732381025600930  0.1936946310691923  0.3800624797759653
  0.2732381033782403  0.3800624673277824  0.1936946280225484
  0.2267875813306119  0.8062951237988898  0.6199428079289433
  0.7498574696226186  0.0912220909825905  0.9088189751137179
  0.2498574931108237  0.9088189738525969  0.0912220907939911
  0.6425204742418913  0.7979260866712679  0.9706086273850332
  0.8575459325207575  0.0293805808364809  0.2020795389424634
  0.3575459010017994  0.2020795381294818  0.0293805942246976
  0.1425204453040863  0.9706086423237110  0.7979260838095712
  0.8190623988701873  0.3884209087526784  0.8912120227846216
  0.6809668417662209  0.1087900126317436  0.6115846674495629
  0.1809668590293469  0.6115846551683504  0.1087900269325388
  0.3190624052964637  0.8912120265424619  0.3884208991785769
  0.4915650443895387  0.6295482585942977  0.6673528196558038
  0.0084588622970330  0.3326406147706891  0.3704248870368190
  0.5084588621589532  0.3704248780290129  0.3326406181608661
  0.9915650422971396  0.6673528240135198  0.6295482551349920
 
  0.00000000E+00  0.00000000E+00  0.00000000E+00
  0.00000000E+00  0.00000000E+00  0.00000000E+00
  0.00000000E+00  0.00000000E+00  0.00000000E+00
  0.00000000E+00  0.00000000E+00  0.00000000E+00
  0.00000000E+00  0.00000000E+00  0.00000000E+00
  0.00000000E+00  0.00000000E+00  0.00000000E+00
  0.00000000E+00  0.00000000E+00  0.00000000E+00
  0.00000000E+00  0.00000000E+00  0.00000000E+00
  0.00000000E+00  0.00000000E+00  0.00000000E+00
  0.00000000E+00  0.00000000E+00  0.00000000E+00
  0.00000000E+00  0.00000000E+00  0.00000000E+00
  0.00000000E+00  0.00000000E+00  0.00000000E+00
  0.00000000E+00  0.00000000E+00  0.00000000E+00
  0.00000000E+00  0.00000000E+00  0.00000000E+00
  0.00000000E+00  0.00000000E+00  0.00000000E+00
  0.00000000E+00  0.00000000E+00  0.00000000E+00
  0.00000000E+00  0.00000000E+00  0.00000000E+00
  0.00000000E+00  0.00000000E+00  0.00000000E+00
  0.00000000E+00  0.00000000E+00  0.00000000E+00
  0.00000000E+00  0.00000000E+00  0.00000000E+00
