Ca1 Co4 S6 O24
1.0
7.486474 0.206353 4.644239
2.698263 6.973624 4.663621
0.315098 0.191101 8.790589
Ca Co S O
1 4 6 24
direct
0.405632 0.640199 0.539621 Ca
0.645722 0.644033 0.649551 Co
0.144576 0.147996 0.144670 Co
0.845719 0.845281 0.847509 Co
0.351421 0.350782 0.350647 Co
0.954043 0.249376 0.532571 S
0.455907 0.040200 0.746823 S
0.539733 0.958572 0.243986 S
0.747747 0.452305 0.044253 S
0.247526 0.536133 0.953704 S
0.040449 0.749331 0.459015 S
0.387522 0.604063 0.756415 O
0.938168 0.302624 0.032397 O
0.772670 0.396925 0.595111 O
0.036764 0.935852 0.311874 O
0.606460 0.763806 0.386446 O
0.322959 0.023125 0.947483 O
0.674634 0.967118 0.046383 O
0.223484 0.599014 0.401115 O
0.055656 0.682681 0.964262 O
0.383918 0.237204 0.611625 O
0.961395 0.058208 0.681322 O
0.604193 0.391597 0.238573 O
0.963483 0.264841 0.353346 O
0.467582 0.896058 0.702307 O
0.345200 0.982676 0.274862 O
0.698242 0.482407 0.894679 O
0.258857 0.357155 0.970375 O
0.880200 0.717932 0.495480 O
0.116415 0.276021 0.502577 O
0.648510 0.011035 0.719851 O
0.525549 0.106855 0.282409 O
0.741089 0.630654 0.023742 O
0.296046 0.509199 0.101420 O
0.034063 0.735366 0.637758 O
