Ti3 P1 O2                               
   1.00000000000000     
     3.3182095293373508    0.0000654817168297    0.0001644312765596
    -1.6588909905298486    2.8744473284275500   -0.0002025738739476
     0.0005554828487893   -0.0004148629667921    7.7777487383935950
   Ti   P    O 
     3     1     2
Direct
  0.0001816699665565 -0.0000552268422307  0.0000890153641881
  0.6664263838463823  0.3332755553481710  0.7050570098890800
  0.3333100591037943  0.6668659416256739  0.2948539974539015
  0.9997586581246638  0.9998702728455870  0.4999848403993508
  0.6668027665399765  0.3331420538173556  0.1410650592171581
  0.3335204624186264  0.6669014032054430  0.8589500776763216
 
  0.00000000E+00  0.00000000E+00  0.00000000E+00
  0.00000000E+00  0.00000000E+00  0.00000000E+00
  0.00000000E+00  0.00000000E+00  0.00000000E+00
  0.00000000E+00  0.00000000E+00  0.00000000E+00
  0.00000000E+00  0.00000000E+00  0.00000000E+00
  0.00000000E+00  0.00000000E+00  0.00000000E+00
