Co4 S4 O16                              
   1.00000000000000     
     8.5811366463962191   -0.0000316824508211   -0.0000008151921181
    -0.0000244768051105    6.6608340376439799   -0.0000092873774639
    -0.0000001181965026   -0.0000065590472949    4.7220907093551876
   Co   S    O 
     4     4    16
Direct
  0.5000404178103687  0.9999947599978328  0.5001033272457523
  0.0000404717997763  0.5000051193997975  0.9998965753354060
  0.5000404375761588  0.5000051291533920  0.5001033723098404
  0.0000404090213957  0.9999947669453549  0.9998965016535614
  0.6781572753489601  0.2499931636640267  0.0221417317526104
  0.1781571927786973  0.2499898838966088  0.4778581434544305
  0.3218374784562367  0.7500067679760096  0.9778751268226996
  0.8218374204002155  0.7500105649496464  0.5221246978657311
  0.6238449863148862  0.2500007154048643  0.7249058127336128
  0.1238449711394737  0.2500008410895993  0.7750942380513292
  0.3760916145180147  0.7499992008979531  0.2751142100078234
  0.8760916250780303  0.7499990137675333  0.2248855961565092
  0.8523210319953710  0.2500007745203311  0.0367134795327166
  0.3523209178189466  0.2500008832018570  0.4632863935515690
  0.1476536526324240  0.7499991539438543  0.9631587428802478
  0.6476536899130112  0.7499990839308363  0.5368410642724651
  0.6251102739505181  0.0669156580183879  0.1603273851419800
  0.1251080604966419  0.4330922419766080  0.3396688924756500
  0.3748979485578586  0.5669174963241854  0.8396781306727216
  0.8748958610345312  0.9330747905970308  0.6603166198303355
  0.3748963549414838  0.9330765216452945  0.8396820789789908
  0.8748984613660102  0.5669157352932856  0.6603228965422796
  0.6251086758618375  0.4330901152129482  0.1603313541925113
  0.1251107711891514  0.0669176181927627  0.3396736285392409
 
  0.00000000E+00  0.00000000E+00  0.00000000E+00
  0.00000000E+00  0.00000000E+00  0.00000000E+00
  0.00000000E+00  0.00000000E+00  0.00000000E+00
  0.00000000E+00  0.00000000E+00  0.00000000E+00
  0.00000000E+00  0.00000000E+00  0.00000000E+00
  0.00000000E+00  0.00000000E+00  0.00000000E+00
  0.00000000E+00  0.00000000E+00  0.00000000E+00
  0.00000000E+00  0.00000000E+00  0.00000000E+00
  0.00000000E+00  0.00000000E+00  0.00000000E+00
  0.00000000E+00  0.00000000E+00  0.00000000E+00
  0.00000000E+00  0.00000000E+00  0.00000000E+00
  0.00000000E+00  0.00000000E+00  0.00000000E+00
  0.00000000E+00  0.00000000E+00  0.00000000E+00
  0.00000000E+00  0.00000000E+00  0.00000000E+00
  0.00000000E+00  0.00000000E+00  0.00000000E+00
  0.00000000E+00  0.00000000E+00  0.00000000E+00
  0.00000000E+00  0.00000000E+00  0.00000000E+00
  0.00000000E+00  0.00000000E+00  0.00000000E+00
  0.00000000E+00  0.00000000E+00  0.00000000E+00
  0.00000000E+00  0.00000000E+00  0.00000000E+00
  0.00000000E+00  0.00000000E+00  0.00000000E+00
  0.00000000E+00  0.00000000E+00  0.00000000E+00
  0.00000000E+00  0.00000000E+00  0.00000000E+00
  0.00000000E+00  0.00000000E+00  0.00000000E+00
