Ca4 V4 P6 O24                           
   1.00000000000000     
     2.5604740000000001    7.2586729999999999    4.3491650000000002
    -0.0048440000000000    0.0341650000000000    8.7871939999999995
     7.6671579999999997    0.0355570000000000    4.2904020000000003
   Ca   V    P    O 
     4     4     6    24
Direct
  0.2771661919563445  0.7806325149648807  0.5659911293481382
  0.9641681161550085  0.0045922582222618  0.0165785740077790
  0.4046831451361962  0.7408273647250233  0.0975593752652810
  0.1214176219692200  0.3808481370116749  0.7470925818834188
  0.6622710658352439  0.6191723585743560  0.6404790766857688
  0.1534541293527009  0.1405710950817654  0.1524923894918190
  0.8391133527527738  0.8643516935076151  0.8527231585825746
  0.3508175845079819  0.3483380333229348  0.3489462274571440
  0.2460422047884479  0.5496218766977509  0.9550447176318865
  0.0344351256830725  0.7504703151652417  0.4452548785499253
  0.9581185667876742  0.2473906199152257  0.5529648194589416
  0.4619467550943241  0.0323570664698371  0.7476801754443794
  0.5440701009877900  0.9513757083005505  0.2465574271182353
  0.7566944385096628  0.4467547659865385  0.0326912788566388
  0.5549866064317376  0.8079651386707911  0.4354837302436828
  0.2648390968190251  0.0649055838718706  0.9075842196983551
  0.4214961760031833  0.5587031950302441  0.7825312441837152
  0.9223509523713734  0.2724098838841791  0.0713712025601271
  0.7795366879846339  0.4109644253659408  0.5495092253483658
  0.0777683686884992  0.9004277285825759  0.2566075018424399
  0.9283887820452167  0.0898654303617569  0.7403229844011322
  0.5766313615392096  0.4320925005508946  0.1890963565250189
  0.7318411269930303  0.9092598337014369  0.0979554464745229
  0.2271091975750794  0.5899433237729654  0.4404807776132789
  0.0975619994726256  0.7398232316939293  0.8966637453205616
  0.4308143451029264  0.1979502498602400  0.5791428657461001
  0.1953051784784791  0.3939070235682227  0.9814756346198074
  0.8854349723355588  0.6968237978355425  0.4722484238027299
  0.0347238503417536  0.1677008339990988  0.4007667165689024
  0.5049145782933460  0.8392123122087758  0.7504487272229863
  0.3935825557465567  0.9259929555624409  0.2247483721045995
  0.7719536629929402  0.4530049497143147  0.8468538591758300
  0.2637704650980858  0.5413977165916599  0.1231819919720341
 -0.0076965007489903  0.8007491340275784  0.6093457378799005
  0.1074835589915950  0.3028312212845107  0.5386941830212223
  0.5992785499829200  0.0241698055447205  0.8080486616836127
  0.4801400695873451  0.1454533418442200  0.2431077149147305
  0.7675625463057826  0.6277607272416501  0.0020048036334215
 
             NaN             NaN             NaN
             NaN             NaN             NaN
             NaN             NaN             NaN
             NaN             NaN             NaN
             NaN             NaN             NaN
             NaN             NaN             NaN
             NaN             NaN             NaN
             NaN             NaN             NaN
             NaN             NaN             NaN
             NaN             NaN             NaN
             NaN             NaN             NaN
             NaN             NaN             NaN
             NaN             NaN             NaN
             NaN             NaN             NaN
             NaN             NaN             NaN
             NaN             NaN             NaN
             NaN             NaN             NaN
             NaN             NaN             NaN
             NaN             NaN             NaN
             NaN             NaN             NaN
             NaN             NaN             NaN
             NaN             NaN             NaN
             NaN             NaN             NaN
             NaN             NaN             NaN
             NaN             NaN             NaN
             NaN             NaN             NaN
             NaN             NaN             NaN
             NaN             NaN             NaN
             NaN             NaN             NaN
             NaN             NaN             NaN
             NaN             NaN             NaN
             NaN             NaN             NaN
             NaN             NaN             NaN
             NaN             NaN             NaN
             NaN             NaN             NaN
             NaN             NaN             NaN
             NaN             NaN             NaN
             NaN             NaN             NaN
