Ca1 Fe4 S6 O24                          
   1.00000000000000     
     7.6064569999999998    0.1270440000000000    4.4708730000000001
     2.6034809999999999    7.1459630000000001    4.5098690000000001
     0.1709760000000000    0.1655870000000000    8.8278669999999995
   Ca   Fe   S    O 
     1     4     6    24
Direct
  0.2508305826336739  0.8711209912098515  0.6060131863087876
  0.6541478710876986  0.6336775822428178  0.6493503902086087
  0.1377513354068581  0.1540115525567409  0.1323733844773283
  0.8488972610320319  0.8355214413488432  0.8571870385383500
  0.3603385037529500  0.3363186297627360  0.3626462480164455
  0.9582254866959395  0.2480808716446982  0.5242150466949377
  0.4504993131271587  0.0272225460728858  0.7452226208838875
  0.5453623797206023  0.9635476079809731  0.2439977767969352
  0.7484731857522910  0.4489113496897481  0.0487436168228013
  0.2550202487243257  0.5271368548818280  0.9537258783517096
  0.0481239883894749  0.7443917187444755  0.4576706958005401
  0.4135856341239755  0.5621942405248839  0.7728106206094139
  0.9189139575863365  0.2798409540180038  0.0411045012860563
  0.8062153832116192  0.4088853668126488  0.5770357382918991
  0.0621555032203369  0.9221808488925958  0.2994807370190490
  0.5825946007325592  0.7800317042923656  0.4001902870551572
  0.3083019660659303  0.0299874506093479  0.9339328459360197
  0.6872571538359709  0.9499768097012427  0.0577493364904647
  0.2087488164805448  0.5857308640811782  0.4057317642189475
  0.0925333099327584  0.7070919182921106  0.9272345723129239
  0.4017273241084452  0.2160719095406238  0.6024958001176344
  0.9325732934940891  0.0683730503912696  0.6779876830397545
  0.5969175994257970  0.4137615017058970  0.2304512476961971
  0.9627240700642604  0.2603567760027593  0.3481451069866428
  0.4447874105449001  0.8875439901410098  0.7040761419645001
  0.3536092976077653  0.0060483250516541  0.2552375626228701
  0.6854787594581346  0.5085517820265831  0.8949841080204577
  0.2158518573650082  0.3747185840850929  0.9707673296328461
  0.8695544916716941  0.7315436387887101  0.5066405198251254
  0.1456624571971400  0.2303010017893085  0.4986762602823268
  0.6387253980610922  0.9712000118607859  0.7399489660045248
  0.5461292292025411  0.1100501825873638  0.2733635699950538
  0.7939941654406307  0.6018760285110529  0.0215592430869206
  0.2959171654209919  0.4784527706240159  0.1154256470807729
  0.0526313786634945  0.7455799019267620  0.6240003814544606
 
             NaN             NaN             NaN
             NaN             NaN             NaN
             NaN             NaN             NaN
             NaN             NaN             NaN
             NaN             NaN             NaN
             NaN             NaN             NaN
             NaN             NaN             NaN
             NaN             NaN             NaN
             NaN             NaN             NaN
             NaN             NaN             NaN
             NaN             NaN             NaN
             NaN             NaN             NaN
             NaN             NaN             NaN
             NaN             NaN             NaN
             NaN             NaN             NaN
             NaN             NaN             NaN
             NaN             NaN             NaN
             NaN             NaN             NaN
             NaN             NaN             NaN
             NaN             NaN             NaN
             NaN             NaN             NaN
             NaN             NaN             NaN
             NaN             NaN             NaN
             NaN             NaN             NaN
             NaN             NaN             NaN
             NaN             NaN             NaN
             NaN             NaN             NaN
             NaN             NaN             NaN
             NaN             NaN             NaN
             NaN             NaN             NaN
             NaN             NaN             NaN
             NaN             NaN             NaN
             NaN             NaN             NaN
             NaN             NaN             NaN
             NaN             NaN             NaN
