Ca1 Mn4 S6 O24                          
   1.00000000000000     
     7.7963339999999999    0.0520300000000000    4.8891190000000000
     2.7555740000000002    7.0153090000000002    4.7528370000000004
     0.5249380000000000    0.0939260000000000    8.9261049999999997
   Ca   Mn   S    O 
     1     4     6    24
Direct
  0.2731271799247438  0.7813826309630771  0.5671452070776130
  0.6606300837786752  0.6419044842080284  0.6463964422257370
  0.1378165431610671  0.1583920681390170  0.1398125317581713
  0.8209312111060040  0.8509382504847153  0.8469648965756646
  0.3592687112735319  0.3509492462510569  0.3587981055969019
  0.9724599788278134  0.2350123579841229  0.5261069721652243
  0.4274221179067336  0.0386025312178340  0.7598925672362252
  0.5547422527957250  0.9692729573358869  0.2307918074123321
  0.7411133710231580  0.4672759326672941  0.0567421463803868
  0.2594030544218345  0.5165922318138213  0.9576250606299317
  0.0387950348241744  0.7554575560985149  0.4493411658578924
  0.4269815296892109  0.5586282609108888  0.7754778858265923
  0.9329624241994625  0.3306814166021669  0.0202021137728475
  0.7998660805732354  0.3666769866068053  0.6147933120126980
  0.0170806318453451  0.9600687034425934  0.3379518267458184
  0.5980070597189456  0.7807236645196775  0.3845956932706887
  0.2903297765949951  0.0141881001668034  0.9692124455751491
  0.7001281926787168  0.9711321410232839  0.0332129286503232
  0.2356187020154599  0.6366965315302484  0.3737709430181049
  0.0942221352090189  0.6784741780908592  0.9188215457761997
  0.3574110160503285  0.2345252259032355  0.6362542299197583
  0.9711419521171905  0.0313276210234728  0.6473553038723890
  0.6075395466730776  0.3940048532904930  0.2531176537011298
  0.9857025707982022  0.2824405587298727  0.3309909632168970
  0.4398284578625445  0.8983246670597597  0.7116441827991684
  0.3698950022884087  0.9972261798946710  0.2508240392977454
  0.6819512257749043  0.5236670094795308  0.9079522614285069
  0.2676749312072431  0.3403178301820368  0.9667559625954784
  0.9074581136705886  0.7099972649703543  0.4549273015160359
  0.1411699824462828  0.2311235744820957  0.5091918928877728
  0.6137253949056943 -0.0001963316951002  0.7399073912400764
  0.5439681486540442  0.1197431398178126  0.2596896467483664
  0.7337709662404865  0.6441710936856422  0.0508381014811084
  0.2671962316399912  0.4908450201621763  0.1265248537204537
  0.0012613570591482  0.7166125795998796  0.6544113181547906
 
             NaN             NaN             NaN
             NaN             NaN             NaN
             NaN             NaN             NaN
             NaN             NaN             NaN
             NaN             NaN             NaN
             NaN             NaN             NaN
             NaN             NaN             NaN
             NaN             NaN             NaN
             NaN             NaN             NaN
             NaN             NaN             NaN
             NaN             NaN             NaN
             NaN             NaN             NaN
             NaN             NaN             NaN
             NaN             NaN             NaN
             NaN             NaN             NaN
             NaN             NaN             NaN
             NaN             NaN             NaN
             NaN             NaN             NaN
             NaN             NaN             NaN
             NaN             NaN             NaN
             NaN             NaN             NaN
             NaN             NaN             NaN
             NaN             NaN             NaN
             NaN             NaN             NaN
             NaN             NaN             NaN
             NaN             NaN             NaN
             NaN             NaN             NaN
             NaN             NaN             NaN
             NaN             NaN             NaN
             NaN             NaN             NaN
             NaN             NaN             NaN
             NaN             NaN             NaN
             NaN             NaN             NaN
             NaN             NaN             NaN
             NaN             NaN             NaN
