Ca1 Mn4 S6 O24
1.0
7.796334 0.052030 4.889119
2.755574 7.015309 4.752837
0.524938 0.093926 8.926105
Ca Mn S O
1 4 6 24
direct
0.317099 0.773151 0.586617 Ca
0.658162 0.643574 0.646415 Mn
0.145241 0.153293 0.142124 Mn
0.824407 0.848155 0.844983 Mn
0.358676 0.355279 0.349995 Mn
0.958821 0.242595 0.528901 S
0.433335 0.042496 0.754395 S
0.547246 0.960909 0.236163 S
0.748236 0.460271 0.050536 S
0.252054 0.521834 0.956889 S
0.044996 0.756989 0.451280 S
0.407612 0.577736 0.770162 O
0.940233 0.327826 0.015539 O
0.786105 0.381057 0.605236 O
0.023311 0.961081 0.327510 O
0.607050 0.774244 0.380852 O
0.303924 0.014279 0.963888 O
0.683393 0.972041 0.033838 O
0.234689 0.632206 0.370131 O
0.077273 0.675652 0.943791 O
0.359903 0.236700 0.630597 O
0.951299 0.044840 0.659369 O
0.615795 0.387096 0.249331 O
0.983217 0.281531 0.332758 O
0.441890 0.900991 0.709553 O
0.361153 0.980119 0.269089 O
0.688972 0.507133 0.906239 O
0.265123 0.344016 0.963858 O
0.900976 0.715385 0.473557 O
0.122345 0.239418 0.519636 O
0.621553 0.005745 0.724297 O
0.531541 0.113859 0.266169 O
0.734753 0.642801 0.038737 O
0.273274 0.488547 0.120589 O
0.018945 0.726260 0.647614 O
