Ca4 Cr8 O16                             
   1.00000000000000     
    10.9996017980373502    0.0000000053077613    0.0000000028909333
     0.0000000048268718    5.8742787992572429   -0.0000000061849039
     0.0000000037078926   -0.0000000059369461    5.0953989233359032
   Ca   Cr   O 
     4     8    16
Direct
  0.5000094278460452  0.0000000017820057  0.8568694107406216
  0.0000094252205827  0.4999999923036995  0.1431305862612078
  0.0000015497773589  0.9999999976232772  0.5342958594813041
  0.5000015475319231  0.4999999988234478  0.4657041512308808
  0.7589407738623919  0.4999999990736583  0.5048941348479730
  0.2589407737763665  0.0000000016957244  0.4951058591067650
  0.7410261318995595  0.0000000009270664  0.4949980415820718
  0.2410261288539388  0.4999999999256772  0.5050019671218777
  0.7500078531209127  0.2499904779836939  0.9999759415024769
  0.7500078531196053  0.7500095221717515  0.9999759419368814
  0.2500078521029963  0.7499904780266817  0.0000240568614842
  0.2500078548106544  0.2500095259650905  0.0000240579973649
  0.8461823464584128  0.4999999988383550  0.8407860554571229
  0.3461823522139440  0.9999999979002610  0.1592139692441705
  0.6538225792075849  0.0000000024733779  0.1592623588971236
  0.1538225802093933  0.5000000004873399  0.8407376170066030
  0.6609921673965715  0.4999999989816359  0.1780537684802397
  0.1609921752112555  0.0000000013308679  0.8219462474638277
  0.8390033196786533  0.9999999981231724  0.8220261198413752
  0.3390033184282188  0.5000000037670134  0.1779738692104331
  0.6505567698710948  0.2531489331190144  0.6652636039693576
  0.6505567706536937  0.7468510683639948  0.6652635912372347
  0.1505567693239200  0.7531489443966848  0.3347364190744528
  0.8494462285302475  0.2468579881544741  0.3347388798577384
  0.3494462263619624  0.7468579775040851  0.6652610898534377
  0.3494462296962269  0.2531420257179562  0.6652611011505698
  0.8494462263280553  0.7531420096054546  0.3347388931846851
  0.1505567685084230  0.2468510549345453  0.3347364074007189
 
  0.00000000E+00  0.00000000E+00  0.00000000E+00
  0.00000000E+00  0.00000000E+00  0.00000000E+00
  0.00000000E+00  0.00000000E+00  0.00000000E+00
  0.00000000E+00  0.00000000E+00  0.00000000E+00
  0.00000000E+00  0.00000000E+00  0.00000000E+00
  0.00000000E+00  0.00000000E+00  0.00000000E+00
  0.00000000E+00  0.00000000E+00  0.00000000E+00
  0.00000000E+00  0.00000000E+00  0.00000000E+00
  0.00000000E+00  0.00000000E+00  0.00000000E+00
  0.00000000E+00  0.00000000E+00  0.00000000E+00
  0.00000000E+00  0.00000000E+00  0.00000000E+00
  0.00000000E+00  0.00000000E+00  0.00000000E+00
  0.00000000E+00  0.00000000E+00  0.00000000E+00
  0.00000000E+00  0.00000000E+00  0.00000000E+00
  0.00000000E+00  0.00000000E+00  0.00000000E+00
  0.00000000E+00  0.00000000E+00  0.00000000E+00
  0.00000000E+00  0.00000000E+00  0.00000000E+00
  0.00000000E+00  0.00000000E+00  0.00000000E+00
  0.00000000E+00  0.00000000E+00  0.00000000E+00
  0.00000000E+00  0.00000000E+00  0.00000000E+00
  0.00000000E+00  0.00000000E+00  0.00000000E+00
  0.00000000E+00  0.00000000E+00  0.00000000E+00
  0.00000000E+00  0.00000000E+00  0.00000000E+00
  0.00000000E+00  0.00000000E+00  0.00000000E+00
  0.00000000E+00  0.00000000E+00  0.00000000E+00
  0.00000000E+00  0.00000000E+00  0.00000000E+00
  0.00000000E+00  0.00000000E+00  0.00000000E+00
  0.00000000E+00  0.00000000E+00  0.00000000E+00
