Co2 S2                                  
   1.00000000000000     
     3.4708014502179321    0.0007530713347151    0.0024638153431197
    -1.7347556415847589    3.0062856941161118   -0.0022811076426693
     0.0038244541455943   -0.0019535518478869    5.2694121353642904
   Co   S 
     2     2
Direct
  0.9999953090542490  0.9999974939766929  0.5000001496334932
  0.9999992599263052  0.9999983195059343  0.9999998636303857
  0.3332995270680073  0.6666947665745226  0.2503813913739208
  0.6667059039514314  0.3333094199428501  0.7496185953621932
 
  0.00000000E+00  0.00000000E+00  0.00000000E+00
  0.00000000E+00  0.00000000E+00  0.00000000E+00
  0.00000000E+00  0.00000000E+00  0.00000000E+00
  0.00000000E+00  0.00000000E+00  0.00000000E+00
