Ca4 P2 O1                               
   1.00000000000000     
     4.4933696388737863   -0.0008070384559078    0.0005347104303579
    -0.0008070392254213    4.4933694531310469    0.0005347611948682
    -2.2453864173481120   -2.2453862409713907    7.5165171034894982
   Ca   P    O 
     4     2     1
Direct
  0.4999999232083283  0.0000000039263170  0.0000000118086945
  0.0000001555672924  0.5000000229156143  0.0000000055963270
  0.6730867932210813  0.6730867311414244  0.3463924726591756
  0.3269132315456176  0.3269131764983868  0.6536074437368029
  0.8636932585038153  0.8636933511483846  0.7276700938883209
  0.1363065051998831  0.1363066763749856  0.2723299475581982
  0.5000001327539749  0.5000000379948872  0.0000000247524810
 
  0.00000000E+00  0.00000000E+00  0.00000000E+00
  0.00000000E+00  0.00000000E+00  0.00000000E+00
  0.00000000E+00  0.00000000E+00  0.00000000E+00
  0.00000000E+00  0.00000000E+00  0.00000000E+00
  0.00000000E+00  0.00000000E+00  0.00000000E+00
  0.00000000E+00  0.00000000E+00  0.00000000E+00
  0.00000000E+00  0.00000000E+00  0.00000000E+00
