Ca1 Fe4 S6 O24
1.0
7.615812 0.108443 4.444980
2.584851 7.163790 4.490997
0.140221 0.152000 8.823872
Ca Fe S O
1 4 6 24
direct
0.247887 0.881895 0.611243 Ca
0.656504 0.638951 0.647364 Fe
0.133773 0.145628 0.139832 Fe
0.839256 0.845796 0.854424 Fe
0.361147 0.352588 0.348955 Fe
0.953670 0.249059 0.527173 S
0.449963 0.035391 0.744750 S
0.541032 0.966767 0.244573 S
0.747739 0.450155 0.044261 S
0.247909 0.535199 0.958150 S
0.046328 0.748885 0.457539 S
0.407431 0.564871 0.777612 O
0.910163 0.275740 0.054289 O
0.809674 0.422232 0.554482 O
0.078168 0.906057 0.279786 O
0.573044 0.789617 0.409254 O
0.304119 0.050419 0.923800 O
0.683334 0.942310 0.069535 O
0.195660 0.572993 0.437805 O
0.087948 0.715559 0.929496 O
0.413333 0.215201 0.590918 O
0.923450 0.082938 0.703068 O
0.588663 0.433128 0.220940 O
0.955796 0.228060 0.372701 O
0.447040 0.887448 0.712444 O
0.349748 1.005076 0.257723 O
0.691540 0.494726 0.891131 O
0.205578 0.379709 0.991250 O
0.862112 0.742421 0.513791 O
0.144090 0.237171 0.489487 O
0.636014 -0.020358 0.747190 O
0.539162 0.119482 0.267832 O
0.800908 0.603524 0.003671 O
0.290958 0.501070 0.113931 O
0.049015 0.778764 0.607529 O
