Ca1 Mn4 P6 O24                          
   1.00000000000000     
     2.8310160000000000    7.0140070000000003    3.9687239999999999
     0.9127380000000000    0.5017370000000000    8.4543309999999998
     7.5861910000000004    0.3000820000000000    3.8351359999999999
   Ca   Mn   P    O 
     1     4     6    24
Direct
  0.2757620702923081  0.7650388799224817  0.5388782610823238
  0.6449517586284214  0.6390371812421924  0.6411724322530323
  0.1386088387541732  0.1568603251412052  0.1363422430728898
  0.8457037326097284  0.8466760908142545  0.8567449387035513
  0.3611365328287779  0.3469126616916021  0.3659001972624923
  0.2537277367786129  0.5208275640026861  0.9657269641330307
  0.0149471727697112  0.7467837094649452  0.4678686470084725
  0.9722786406994102  0.2502496540031149  0.5178417739212767
  0.4507095389307917  0.0267142619747364  0.7577480240421036
  0.5528848341094719  0.9747462835668044  0.2352176546371564
  0.7413997334563855  0.4692364484806553  0.0473826516479538
  0.5899784163663403  0.7616909572860552  0.3988349642108815
  0.2946626045323828  0.0098694757665771  0.9652182409545568
  0.4235360937726275  0.5684542893386135  0.7684749364046106
  0.9400112910130911  0.2934807271990506  0.0317622540221996
  0.7775120584751115  0.3929715061672976  0.6079484391012629
  0.0279130781593079  0.9535635599857902  0.3413448330806538
  0.9857462451117246  0.0313367554828622  0.6485400268564501
  0.5826397426720905  0.4142576500395899  0.2456138739660888
  0.7115107504599769  0.9822853680464615  0.0327777860355901
  0.2224625196528457  0.5983200749259399  0.4011994059780892
  0.0696567955254967  0.7071368079364735  0.9388080967784264
  0.3921803910022569  0.2390703017115089  0.6071210256944074
  0.2516004522429273  0.3467337550732224  0.9570169639295359
  0.8554128437891577  0.7241254697087383  0.4642803022196402
  0.9860581574075503  0.2989476436824361  0.3092236671854067
  0.4715204616187383  0.8777265065326663  0.6935937567910673
  0.3486766959381608  0.0149999794045729  0.2446077698325072
  0.6919212813523188  0.5247904582838888  0.8724118092168072
  0.2959982687210411  0.4781794055715703  0.1368385513576259
 -0.0113718384772491  0.7010855935060292  0.6830202824227175
  0.1463637939239475  0.2651973725729030  0.5101663951972402
  0.6499716215562699  0.9928507740930259  0.7497929679145596
  0.5387629345444899  0.1197458235860124  0.2966347491469747
  0.7451555754930421  0.6491994394820194  0.0457942272842316
 
             NaN             NaN             NaN
             NaN             NaN             NaN
             NaN             NaN             NaN
             NaN             NaN             NaN
             NaN             NaN             NaN
             NaN             NaN             NaN
             NaN             NaN             NaN
             NaN             NaN             NaN
             NaN             NaN             NaN
             NaN             NaN             NaN
             NaN             NaN             NaN
             NaN             NaN             NaN
             NaN             NaN             NaN
             NaN             NaN             NaN
             NaN             NaN             NaN
             NaN             NaN             NaN
             NaN             NaN             NaN
             NaN             NaN             NaN
             NaN             NaN             NaN
             NaN             NaN             NaN
             NaN             NaN             NaN
             NaN             NaN             NaN
             NaN             NaN             NaN
             NaN             NaN             NaN
             NaN             NaN             NaN
             NaN             NaN             NaN
             NaN             NaN             NaN
             NaN             NaN             NaN
             NaN             NaN             NaN
             NaN             NaN             NaN
             NaN             NaN             NaN
             NaN             NaN             NaN
             NaN             NaN             NaN
             NaN             NaN             NaN
             NaN             NaN             NaN
