Ca1 Mn4 P6 O24
1.0
2.831016 7.014007 3.968724
0.912738 0.501737 8.454331
7.586191 0.300082 3.835136
Ca Mn P O
1 4 6 24
direct
0.342881 0.716840 0.541388 Ca
0.642466 0.650393 0.640696 Mn
0.137265 0.154223 0.138612 Mn
0.848631 0.843381 0.858622 Mn
0.358238 0.344792 0.358397 Mn
0.253387 0.524241 0.956342 P
0.022181 0.747067 0.472801 P
0.968406 0.252440 0.520289 P
0.449923 0.028026 0.756809 P
0.548215 0.973235 0.234642 P
0.740365 0.467690 0.046630 P
0.593425 0.765304 0.397566 O
0.288472 0.021591 0.957902 O
0.418285 0.575501 0.756795 O
0.930949 0.288616 0.044738 O
0.794652 0.416479 0.589694 O
0.049945 0.941619 0.330783 O
0.954053 0.050168 0.667791 O
0.571546 0.426956 0.239397 O
0.708868 0.976445 0.035355 O
0.195655 0.578990 0.409097 O
0.066077 0.707111 0.945512 O
0.401425 0.234923 0.598201 O
0.242199 0.352100 0.958311 O
0.837648 0.754139 0.489186 O
0.978653 0.290935 0.317603 O
0.460874 0.876718 0.701803 O
0.348714 1.009657 0.242982 O
0.694746 0.520525 0.872247 O
0.299762 0.476807 0.126413 O
0.015924 0.707602 0.675915 O
0.156082 0.241446 0.504713 O
0.646844 -0.018018 0.757623 O
0.535220 0.123576 0.289727 O
0.754564 0.641027 0.040602 O
