Ti24 P18 O90                            
   1.00000000000000     
     7.4715495493486124    0.0052022302417068   -0.0002896866080381
     3.7441159066948031   11.1261637793270385   -0.0004174100895126
     3.7351237096591747    0.0014310661845316   19.2867070005720542
   Ti   P    O 
    24    18    90
Direct
  0.9798004474833575  0.0670072165965875  0.0797314826819621
  0.1342002587484301  0.9293342647639530  0.9171319319816029
  0.8096241259085454  0.5670840471857364  0.4202183176200490
  0.8009975059162499  0.4294763157240452  0.5829204726260798
  0.6758365818071063  0.0887216808190224  0.7537284523252942
  0.5211040988303655  0.9113660893107920  0.2465187061067954
  0.1797570919028537  0.5886421465389298  0.7462356793680874
  0.5174787451099745  0.4113349582335371  0.2534836636368105
  0.5206935966735599  0.2319197387026329  0.9156420764037875
  0.6682950884512386  0.7681489869438494  0.0839668092946976
  0.1864070595845632  0.7318221512299166  0.5843097476104556
  0.5028687170028424  0.2682102627704862  0.4160896664797880
  0.3150230817601561  0.0786581145261064  0.4071515648636993
  0.7981970725488704  0.9208171611590106  0.5933845502151495
  0.4722156004552474  0.5785694018170592  0.0930053699199940
  0.1417573488497792  0.4209831867000845  0.9067118577847659
  0.1846795448408866  0.2346504633064060  0.5727526828607611
  0.9937095542882544  0.7652815794315543  0.4271388043812075
  0.5069988817029557  0.7346713117586456  0.9272471104350469
  0.1712050189223873  0.2652615697037561  0.0728429341321896
  0.9883515095915952  0.3924485262470343  0.7419241191057272
  0.1254056695939955  0.6080078080583158  0.2578098436546318
  0.4810401660137533  0.8922460791488187  0.7582081264944883
  0.1324646827794296  0.1083038142103384  0.2422343494504995
  0.4366139075208878  0.9996804643770194  0.0004228576581674
  0.1870916203568653  0.4996107079580820  0.4995290176366945
  0.1293419505966272  0.3403476181310207  0.3273595631026238
  0.7939264180884659  0.6613501930068821  0.6716284501022182
  0.2064347455533923  0.8403715029055713  0.1727414191628275
  0.2156318776126815  0.1614690485054593  0.8284385314733228
  0.7836164659111398  0.0046982328172670  0.3340761880458359
  0.1209333636243557  0.9958595116953464  0.6657520780373876
  0.8677920256305629  0.5046587552389856  0.1658865191636132
  0.5366392557995968  0.4960316286639746  0.8343466638108799
  0.4357474138945714  0.6729684862746856  0.3390759840321578
  0.4446927590835522  0.3276592018591675  0.6612596918561016
  0.5248245975183388  0.1728650684274121  0.1608860713734885
  0.8560584900510105  0.8275634849392789  0.8387334507156807
  0.7851513354237621  0.3356006123165651  0.0031860886374862
  0.1251180542774167  0.6610674437900920  0.9982586999979454
  0.5382272239174133  0.8356034323692277  0.4968316814256252
  0.8735204635304218  0.1608576584374582  0.5019634323838984
  0.1979404263202640  0.0833856421748625  0.6177257129726681
  0.8973023594734778  0.9163173139979449  0.3825271431109514
  0.5659651762149750  0.5835692452925921  0.8822073713234869
  0.0297583077934008  0.4164629900664669  0.1172489592790833
  0.5553357196526681  0.9356068963114577  0.0527607896868050
  0.5392258591076092  0.0653064310479815  0.9477806768966901
  0.3583894125390846  0.4356121828379593  0.4472265353901111
  0.2368722990592878  0.5651438734311759  0.5522798403712899
  0.2732679349856079  0.9240751609092829  0.7072934472079154
  0.9073709311665278  0.0760401056891856  0.2934697561665515
  0.7304907166273114  0.4241700553123612  0.7928890195576339
  0.9509583021363511  0.5759489115945789  0.2065317039029881
  0.4138408726192846  0.7625882399092109  0.5306546794030194
  0.7128931857284478  0.2356358453825367  0.4667623818017316
  0.6947238960980907  0.2626790607906033  0.9692190856255993
  0.9292054106711233  0.7359708809558693  0.0332796899145149
  0.9216824118874927  0.2504324494853587  0.0488086413626943
  0.2229895946107444  0.7444561067671444  0.9527753545362662
  0.7205306205148856  0.7504508447688029  0.4512692374579920
  0.9257726178510856  0.2444417273872161  0.5473374794122691
  0.5533572326691806  0.2300958021027127  0.7054787485755428
  0.4949498080686864  0.7688916566983830  0.2948018143945680
  0.0087316601196874  0.7302482056699708  0.7942290252321680
  0.5398286130503812  0.2690896476653012  0.2049288241292468
  0.5670253334522529  0.4029391741990023  0.6291552566060660
  0.6001471389261417  0.5976653799921365  0.3725452631811032
  0.9469278310688014  0.9028883357632690  0.8705403281637378
  0.7224410799956257  0.0976200986480202  0.1271888937334957
  0.9033320237341845  0.3956519094708928  0.9498975032946365
  0.2508518835112803  0.5996050442563318  0.0513852331342613
  0.6028554322950200  0.8954654856560682  0.5502742180668174
  0.0523095484933307  0.0992019864634157  0.4488393142651428
  0.9369612003399884  0.5719176764664685  0.7130822493186207
  0.2258316447115948  0.4277934468800830  0.2853693873261193
  0.4000398118755354  0.0720458677753484  0.7869379730479696
  0.2610724363873247  0.9279484552156726  0.2146126009255134
  0.1063502443801855  0.0945641087033203  0.8771856353790408
  0.0769437722106488  0.9136731149828831  0.1253402731241736
  0.7331481910152080  0.5944682078030545  0.6229605578836007
  0.9525293907240860  0.4137649623611793  0.3747445348705726
  0.4327218710839326  0.9294234676774104  0.4487565863525968
  0.8079911833899728  0.0681245954597102  0.5490630214700482
  0.6311535760084512  0.4294010288330432  0.0512126291262074
  0.1069700596126618  0.5682377147324715  0.9511441649454705
  0.7172707471545596  0.9113095263253402  0.7941241920419582
  0.4261495098527023  0.0890773668977782  0.2052721689842702
  0.2613481391121786  0.4112980789131589  0.7059050413915214
  0.3816593811212959  0.5890573722710515  0.2946369802149146
  0.7392536818117730  0.7692407511337798  0.8938053257924401
  0.4030728047981066  0.2324930666505889  0.1065901805013470
  0.3829071918639509  0.2692775575576228  0.6062055659343208
  0.2595587373338548  0.7325996316649385  0.3932957793010458
  0.8953421624032416  0.7477324654191692  0.6324277982440774
  0.2721392453563880  0.2547958064592111  0.3685232709611688
  0.2781309677441930  0.2479425052999063  0.8674946162751092
  0.3904594678258476  0.7547790429546177  0.1315340396285904
  0.1079709440089630  0.7657639538555743  0.2228072191178033
  0.0968665330889307  0.2362667825825579  0.7768016483727562
  0.0806676380097187  0.2659035733215973  0.2772705059271924
  0.6235341117834002  0.7360128347613224  0.7233058586038347
  0.4399711404841044  0.4104851437402212  0.8777062030793658
  0.7265985172880211  0.5907460142263582  0.1234412159214519
  0.0672117100135763  0.9102172525997340  0.6225057038941745
  0.6001731661883402  0.0907784723652195  0.3765262104010798
  0.0865230927236602  0.4091089921279693  0.5353766703012830
  0.0336171443184644  0.5893969151722319  0.4616524039868845
  0.3722152846666360  0.9092255574316898  0.9644001250762384
  0.2449956374518793  0.0894024481932209  0.0382017797916415
  0.4034069910877136  0.5643611205366791  0.7858888543699227
  0.7561317965481099  0.4364631594499663  0.2151229856372789
  0.9390845194198971  0.0643620969976988  0.7141105337527708
  0.7216523961154556  0.9365736708179655  0.2846505993013436
  0.7261288959867395  0.5053519097381554  0.4969553945900309
  0.9731136994141498  0.0050615450164827  0.0030625489487694
  0.6462008553233114  0.9716384263330734  0.6764891316862507
  0.2978224736714934  0.0298841876549949  0.3228864667911995
  0.0730856951490635  0.4718133259464992  0.8235792292373501
  0.3703921453582841  0.5296963230797773  0.1771904372234354
  0.2536645017940491  0.6594372784893624  0.6710081750272384
  0.5843485015900975  0.3404849521217226  0.3289950143932729
  0.6745432807899301  0.1597990923305065  0.8288395386738729
  0.6633745725156769  0.8406642258900339  0.1709823497942914
  0.9788680917737558  0.6556695624328991  0.3416673394827558
  0.9784559510515854  0.3421381381985455  0.6578383828294037
  0.0704896502258233  0.1558093471967755  0.1583359861403146
  0.3866451054809835  0.8418307500860418  0.8421887296197221
  0.5670081935994750  0.6804011422737876  0.0118337139620592
  0.2599347802498190  0.3174147603022178  0.9885791146859613
  0.3290669935680851  0.1804872262214359  0.4881243671817549
  0.9984235135433684  0.8174973827716648  0.5113743529499544
 
  0.00000000E+00  0.00000000E+00  0.00000000E+00
  0.00000000E+00  0.00000000E+00  0.00000000E+00
  0.00000000E+00  0.00000000E+00  0.00000000E+00
  0.00000000E+00  0.00000000E+00  0.00000000E+00
  0.00000000E+00  0.00000000E+00  0.00000000E+00
  0.00000000E+00  0.00000000E+00  0.00000000E+00
  0.00000000E+00  0.00000000E+00  0.00000000E+00
  0.00000000E+00  0.00000000E+00  0.00000000E+00
  0.00000000E+00  0.00000000E+00  0.00000000E+00
  0.00000000E+00  0.00000000E+00  0.00000000E+00
  0.00000000E+00  0.00000000E+00  0.00000000E+00
  0.00000000E+00  0.00000000E+00  0.00000000E+00
  0.00000000E+00  0.00000000E+00  0.00000000E+00
  0.00000000E+00  0.00000000E+00  0.00000000E+00
  0.00000000E+00  0.00000000E+00  0.00000000E+00
  0.00000000E+00  0.00000000E+00  0.00000000E+00
  0.00000000E+00  0.00000000E+00  0.00000000E+00
  0.00000000E+00  0.00000000E+00  0.00000000E+00
  0.00000000E+00  0.00000000E+00  0.00000000E+00
  0.00000000E+00  0.00000000E+00  0.00000000E+00
  0.00000000E+00  0.00000000E+00  0.00000000E+00
  0.00000000E+00  0.00000000E+00  0.00000000E+00
  0.00000000E+00  0.00000000E+00  0.00000000E+00
  0.00000000E+00  0.00000000E+00  0.00000000E+00
  0.00000000E+00  0.00000000E+00  0.00000000E+00
  0.00000000E+00  0.00000000E+00  0.00000000E+00
  0.00000000E+00  0.00000000E+00  0.00000000E+00
  0.00000000E+00  0.00000000E+00  0.00000000E+00
  0.00000000E+00  0.00000000E+00  0.00000000E+00
  0.00000000E+00  0.00000000E+00  0.00000000E+00
  0.00000000E+00  0.00000000E+00  0.00000000E+00
  0.00000000E+00  0.00000000E+00  0.00000000E+00
  0.00000000E+00  0.00000000E+00  0.00000000E+00
  0.00000000E+00  0.00000000E+00  0.00000000E+00
  0.00000000E+00  0.00000000E+00  0.00000000E+00
  0.00000000E+00  0.00000000E+00  0.00000000E+00
  0.00000000E+00  0.00000000E+00  0.00000000E+00
  0.00000000E+00  0.00000000E+00  0.00000000E+00
  0.00000000E+00  0.00000000E+00  0.00000000E+00
  0.00000000E+00  0.00000000E+00  0.00000000E+00
  0.00000000E+00  0.00000000E+00  0.00000000E+00
  0.00000000E+00  0.00000000E+00  0.00000000E+00
  0.00000000E+00  0.00000000E+00  0.00000000E+00
  0.00000000E+00  0.00000000E+00  0.00000000E+00
  0.00000000E+00  0.00000000E+00  0.00000000E+00
  0.00000000E+00  0.00000000E+00  0.00000000E+00
  0.00000000E+00  0.00000000E+00  0.00000000E+00
  0.00000000E+00  0.00000000E+00  0.00000000E+00
  0.00000000E+00  0.00000000E+00  0.00000000E+00
  0.00000000E+00  0.00000000E+00  0.00000000E+00
  0.00000000E+00  0.00000000E+00  0.00000000E+00
  0.00000000E+00  0.00000000E+00  0.00000000E+00
  0.00000000E+00  0.00000000E+00  0.00000000E+00
  0.00000000E+00  0.00000000E+00  0.00000000E+00
  0.00000000E+00  0.00000000E+00  0.00000000E+00
  0.00000000E+00  0.00000000E+00  0.00000000E+00
  0.00000000E+00  0.00000000E+00  0.00000000E+00
  0.00000000E+00  0.00000000E+00  0.00000000E+00
  0.00000000E+00  0.00000000E+00  0.00000000E+00
  0.00000000E+00  0.00000000E+00  0.00000000E+00
  0.00000000E+00  0.00000000E+00  0.00000000E+00
  0.00000000E+00  0.00000000E+00  0.00000000E+00
  0.00000000E+00  0.00000000E+00  0.00000000E+00
  0.00000000E+00  0.00000000E+00  0.00000000E+00
  0.00000000E+00  0.00000000E+00  0.00000000E+00
  0.00000000E+00  0.00000000E+00  0.00000000E+00
  0.00000000E+00  0.00000000E+00  0.00000000E+00
  0.00000000E+00  0.00000000E+00  0.00000000E+00
  0.00000000E+00  0.00000000E+00  0.00000000E+00
  0.00000000E+00  0.00000000E+00  0.00000000E+00
  0.00000000E+00  0.00000000E+00  0.00000000E+00
  0.00000000E+00  0.00000000E+00  0.00000000E+00
  0.00000000E+00  0.00000000E+00  0.00000000E+00
  0.00000000E+00  0.00000000E+00  0.00000000E+00
  0.00000000E+00  0.00000000E+00  0.00000000E+00
  0.00000000E+00  0.00000000E+00  0.00000000E+00
  0.00000000E+00  0.00000000E+00  0.00000000E+00
  0.00000000E+00  0.00000000E+00  0.00000000E+00
  0.00000000E+00  0.00000000E+00  0.00000000E+00
  0.00000000E+00  0.00000000E+00  0.00000000E+00
  0.00000000E+00  0.00000000E+00  0.00000000E+00
  0.00000000E+00  0.00000000E+00  0.00000000E+00
  0.00000000E+00  0.00000000E+00  0.00000000E+00
  0.00000000E+00  0.00000000E+00  0.00000000E+00
  0.00000000E+00  0.00000000E+00  0.00000000E+00
  0.00000000E+00  0.00000000E+00  0.00000000E+00
  0.00000000E+00  0.00000000E+00  0.00000000E+00
  0.00000000E+00  0.00000000E+00  0.00000000E+00
  0.00000000E+00  0.00000000E+00  0.00000000E+00
  0.00000000E+00  0.00000000E+00  0.00000000E+00
  0.00000000E+00  0.00000000E+00  0.00000000E+00
  0.00000000E+00  0.00000000E+00  0.00000000E+00
  0.00000000E+00  0.00000000E+00  0.00000000E+00
  0.00000000E+00  0.00000000E+00  0.00000000E+00
  0.00000000E+00  0.00000000E+00  0.00000000E+00
  0.00000000E+00  0.00000000E+00  0.00000000E+00
  0.00000000E+00  0.00000000E+00  0.00000000E+00
  0.00000000E+00  0.00000000E+00  0.00000000E+00
  0.00000000E+00  0.00000000E+00  0.00000000E+00
  0.00000000E+00  0.00000000E+00  0.00000000E+00
  0.00000000E+00  0.00000000E+00  0.00000000E+00
  0.00000000E+00  0.00000000E+00  0.00000000E+00
  0.00000000E+00  0.00000000E+00  0.00000000E+00
  0.00000000E+00  0.00000000E+00  0.00000000E+00
  0.00000000E+00  0.00000000E+00  0.00000000E+00
  0.00000000E+00  0.00000000E+00  0.00000000E+00
  0.00000000E+00  0.00000000E+00  0.00000000E+00
  0.00000000E+00  0.00000000E+00  0.00000000E+00
  0.00000000E+00  0.00000000E+00  0.00000000E+00
  0.00000000E+00  0.00000000E+00  0.00000000E+00
  0.00000000E+00  0.00000000E+00  0.00000000E+00
  0.00000000E+00  0.00000000E+00  0.00000000E+00
  0.00000000E+00  0.00000000E+00  0.00000000E+00
  0.00000000E+00  0.00000000E+00  0.00000000E+00
  0.00000000E+00  0.00000000E+00  0.00000000E+00
  0.00000000E+00  0.00000000E+00  0.00000000E+00
  0.00000000E+00  0.00000000E+00  0.00000000E+00
  0.00000000E+00  0.00000000E+00  0.00000000E+00
  0.00000000E+00  0.00000000E+00  0.00000000E+00
  0.00000000E+00  0.00000000E+00  0.00000000E+00
  0.00000000E+00  0.00000000E+00  0.00000000E+00
  0.00000000E+00  0.00000000E+00  0.00000000E+00
  0.00000000E+00  0.00000000E+00  0.00000000E+00
  0.00000000E+00  0.00000000E+00  0.00000000E+00
  0.00000000E+00  0.00000000E+00  0.00000000E+00
  0.00000000E+00  0.00000000E+00  0.00000000E+00
  0.00000000E+00  0.00000000E+00  0.00000000E+00
  0.00000000E+00  0.00000000E+00  0.00000000E+00
  0.00000000E+00  0.00000000E+00  0.00000000E+00
  0.00000000E+00  0.00000000E+00  0.00000000E+00
  0.00000000E+00  0.00000000E+00  0.00000000E+00
  0.00000000E+00  0.00000000E+00  0.00000000E+00
