Ca1 Fe4 S6 O24                          
   1.00000000000000     
     7.6177787716644918    0.0863502338698886    4.4833456156134872
     2.6036285491087066    7.1626593449662916    4.4667965198033404
     0.1658545414135610    0.0800714960694778    8.8441281264349225
   Ca   Fe   S    O 
     1     4     6    24
Direct
  0.3770920975187124  0.7472261081794400  0.1166282526908091
  0.6447911253977168  0.6349178247637468  0.6428330266354578
  0.1424474408098959  0.1547559570206687  0.1512902541925740
  0.8522791200402580  0.8605978186534458  0.8503282526607521
  0.3457082154193998  0.3392035083787377  0.3530945542416148
  0.9443330325093626  0.2475262792845001  0.5516090448132971
  0.4717351831012877  0.0348974667710635  0.7453566837543733
  0.5431155231769722  0.9468275841732279  0.2441178466547242
  0.7501469925584558  0.4606708224195089  0.0235708993307213
  0.2511099899235063  0.5468381894454808  0.9522343219820399
  0.0330894613933168  0.7475648947615170  0.4618991456516284
  0.4000769872597800  0.5957684520518782  0.7713825455870449
  0.9272346023313034  0.3229426519213376  0.0408310236246336
  0.7666675653815602  0.4089968215463315  0.5723646065666443
  0.0601841970374579  0.9074230957405476  0.2838172222297288
  0.5595548108920170  0.8060672567025620  0.4261884383608674
  0.2964766008612330  0.0676849315047008  0.9072891329101083
  0.7244023447230106  0.9001893855701866  0.0946867385560068
  0.2114079115794425  0.5879898024976455  0.4349503164266011
  0.0683647292550447  0.6863516906185225  0.9363146440664138
  0.4549923772469029  0.1730962777169296  0.5683463664158168
  0.9254129241217726  0.0846543019630417  0.7282109928832483
  0.5878977640873657  0.4270848465884995  0.1983385588658919
  0.9789082475992714  0.2012335754770760  0.3982219478201614
  0.5102913887765013  0.8419145299378314  0.7610924671172228
  0.3956832802580408  0.9370188025446495  0.2186056289971461
  0.7237174331406209  0.4660294052201124  0.8694717173409217
  0.2609044589423348  0.3596434702609415  0.0004514430073783
  0.8769753831017653  0.7045671606957455  0.4960424318670960
  0.0971472752121727  0.2948849842492649  0.5169281038934201
  0.6253241036992065  0.0296469186550468  0.7726289045391539
  0.4930117553723719  0.1336222592788374  0.2365633687611179
  0.7330266800203802  0.6538359776400569  0.9859595289198424
  0.2755214362302283  0.5562787776262468  0.1005344437863798
  0.9974675610213666  0.7906481701407131  0.6184171448491895
 
  0.00000000E+00  0.00000000E+00  0.00000000E+00
  0.00000000E+00  0.00000000E+00  0.00000000E+00
  0.00000000E+00  0.00000000E+00  0.00000000E+00
  0.00000000E+00  0.00000000E+00  0.00000000E+00
  0.00000000E+00  0.00000000E+00  0.00000000E+00
  0.00000000E+00  0.00000000E+00  0.00000000E+00
  0.00000000E+00  0.00000000E+00  0.00000000E+00
  0.00000000E+00  0.00000000E+00  0.00000000E+00
  0.00000000E+00  0.00000000E+00  0.00000000E+00
  0.00000000E+00  0.00000000E+00  0.00000000E+00
  0.00000000E+00  0.00000000E+00  0.00000000E+00
  0.00000000E+00  0.00000000E+00  0.00000000E+00
  0.00000000E+00  0.00000000E+00  0.00000000E+00
  0.00000000E+00  0.00000000E+00  0.00000000E+00
  0.00000000E+00  0.00000000E+00  0.00000000E+00
  0.00000000E+00  0.00000000E+00  0.00000000E+00
  0.00000000E+00  0.00000000E+00  0.00000000E+00
  0.00000000E+00  0.00000000E+00  0.00000000E+00
  0.00000000E+00  0.00000000E+00  0.00000000E+00
  0.00000000E+00  0.00000000E+00  0.00000000E+00
  0.00000000E+00  0.00000000E+00  0.00000000E+00
  0.00000000E+00  0.00000000E+00  0.00000000E+00
  0.00000000E+00  0.00000000E+00  0.00000000E+00
  0.00000000E+00  0.00000000E+00  0.00000000E+00
  0.00000000E+00  0.00000000E+00  0.00000000E+00
  0.00000000E+00  0.00000000E+00  0.00000000E+00
  0.00000000E+00  0.00000000E+00  0.00000000E+00
  0.00000000E+00  0.00000000E+00  0.00000000E+00
  0.00000000E+00  0.00000000E+00  0.00000000E+00
  0.00000000E+00  0.00000000E+00  0.00000000E+00
  0.00000000E+00  0.00000000E+00  0.00000000E+00
  0.00000000E+00  0.00000000E+00  0.00000000E+00
  0.00000000E+00  0.00000000E+00  0.00000000E+00
  0.00000000E+00  0.00000000E+00  0.00000000E+00
  0.00000000E+00  0.00000000E+00  0.00000000E+00
