Ca8 P16 O48                             
   1.00000000000000     
     6.9780458325568633   -0.0000000101569022   -0.0487186628126002
    -0.0000000093841989    7.7145377314073960    0.0000000054975295
     0.0121303012765063    0.0000000137405430   16.9532341059721361
   Ca   P    O 
     8    16    48
Direct
  0.5233205689438947  0.3874110915735969  0.3963421411502850
  0.4766789619851579  0.8874110534066446  0.1036582269133817
  0.4766789632174167  0.6125889485360716  0.6036582273752629
  0.5233205663819760  0.1125889076277886  0.8963421408835970
  0.0180338017842701  0.3632920188717677  0.3287974666194984
  0.9819652746304826  0.8632922596352870  0.1712025104611001
  0.9819652730832047  0.6367077395933336  0.6712025087075446
  0.0180337986615058  0.1367079792764656  0.8287974632184145
  0.1406194827474891  0.3003462195346600  0.5370574068039033
  0.8593802898312362  0.8003474413241207  0.9629425652359558
  0.8593802882034609  0.6996525627735934  0.4629425693101652
  0.1406194818254818  0.1996537803497134  0.0370574025373216
  0.7326499880490900  0.2857426564745111  0.5885037788654301
  0.2673513677801722  0.7857416879337151  0.9114967757821333
  0.2673513669342782  0.7142583150330850  0.4114967827337708
  0.7326499852140529  0.2142573432850554  0.0885037820189254
  0.2191542622941753  0.0083342128229162  0.6452108663853267
  0.7808464601759582  0.5083359625121417  0.8547888332631359
  0.7808464566484119  0.9916640362662790  0.3547888357105080
  0.2191542648757832  0.4916657908730855  0.1452108663081262
  0.6293591364395326  0.0001052820136422  0.6952417899610381
  0.3706394804293680  0.5001034260789012  0.8047581167429527
  0.3706394827577810  0.9998965695761370  0.3047581164007411
  0.6293591402957048  0.4998947223254646  0.1952417876664256
  0.2239188894437874  0.8245542615399728  0.6183516119454566
  0.7760790212050850  0.3245550429405171  0.8816471750024917
  0.7760790164965385  0.1754449563664124  0.3816471794621563
  0.2239188838651884  0.6754457386870101  0.1183516154364241
  0.1951740510436437  0.3207956835078249  0.4532672209446034
  0.8048257446278129  0.8207971355696273  0.0467325508039664
  0.8048257326568873  0.6792028601485001  0.5467325472943898
  0.1951740363704957  0.1792043233061733  0.9532672210963682
  0.5745335227307109  0.3378916537171932  0.5338218775248222
  0.4254675618684729  0.8378920596355428  0.9661788738641306
  0.4254675660943406  0.6621079409166839  0.4661788759782866
  0.5745335291294467  0.1621083479723850  0.0338218806704802
  0.7593421198729615  0.4074882716469901  0.6560643768630356
  0.2406585016086211  0.9074874711970864  0.8439364933813778
  0.2406584942014547  0.5925125254529391  0.3439365018232934
  0.7593421129444806  0.0925117290103330  0.1560643843453278
  0.2337871445412389  0.1243035255263010  0.5676759225578181
  0.7662149783322292  0.6243047681768772  0.9323241776453486
  0.7662149721258515  0.8756952325216503  0.4323241799966979
  0.2337871365969235  0.3756964715218913  0.0676759261916899
  0.7030716629878455  0.0928431162597363  0.6170985606323853
  0.2969272533326333  0.5928424405989503  0.8829011513108611
  0.2969272567568950  0.9071575582180671  0.3829011510897402
  0.7030716692549461  0.4071568869177469  0.1170985604033419
  0.4092108297868080  0.0530153564422662  0.6915967241082583
  0.5907887200363930  0.5530151856341803  0.8084033256117422
  0.5907887259642237  0.9469848170083850  0.3084033185890931
  0.4092108398567547  0.4469846427495341  0.1915967159330947
  0.3406606612538781  0.1885162079885205  0.3177945718252957
  0.6593404347263032  0.6885138402022051  0.1822051216890657
  0.6593404259637552  0.8114861566367182  0.6822051244639340
  0.3406606545427806  0.3114837934973096  0.8177945749889020
  0.2991452354300606  0.9197856025296147  0.2309917452160093
  0.7008549607113608  0.4197841873842094  0.2690081979489065
  0.7008549667682118  0.0802158171911032  0.7690081941843729
  0.2991452430397530  0.5802143962142452  0.7309917418090137
  0.0814378981204555  0.7419797528542063  0.4621842930432294
  0.9185622037319590  0.2419787500004560  0.0378154331286140
  0.9185622038107653  0.2580212463979450  0.5378154252663379
  0.0814378968738367  0.7580202500407722  0.9621842856742191
  0.1795876028434833  0.0541418737533803  0.0925980590816806
  0.8204110518517425  0.5541407023954861  0.4074017141536217
  0.8204110428935962  0.9458593006299552  0.9074017182249250
  0.1795875953412818  0.4458581141210942  0.5925980612849600
  0.0581662153395897  0.0646642563962700  0.6954610900538043
  0.9418346796178980  0.5646673242801796  0.8045392387571795
  0.9418346876959873  0.9353326733631349  0.3045392476777877
  0.0581662225207396  0.4353357432344325  0.1954610999665434
 
  0.00000000E+00  0.00000000E+00  0.00000000E+00
  0.00000000E+00  0.00000000E+00  0.00000000E+00
  0.00000000E+00  0.00000000E+00  0.00000000E+00
  0.00000000E+00  0.00000000E+00  0.00000000E+00
  0.00000000E+00  0.00000000E+00  0.00000000E+00
  0.00000000E+00  0.00000000E+00  0.00000000E+00
  0.00000000E+00  0.00000000E+00  0.00000000E+00
  0.00000000E+00  0.00000000E+00  0.00000000E+00
  0.00000000E+00  0.00000000E+00  0.00000000E+00
  0.00000000E+00  0.00000000E+00  0.00000000E+00
  0.00000000E+00  0.00000000E+00  0.00000000E+00
  0.00000000E+00  0.00000000E+00  0.00000000E+00
  0.00000000E+00  0.00000000E+00  0.00000000E+00
  0.00000000E+00  0.00000000E+00  0.00000000E+00
  0.00000000E+00  0.00000000E+00  0.00000000E+00
  0.00000000E+00  0.00000000E+00  0.00000000E+00
  0.00000000E+00  0.00000000E+00  0.00000000E+00
  0.00000000E+00  0.00000000E+00  0.00000000E+00
  0.00000000E+00  0.00000000E+00  0.00000000E+00
  0.00000000E+00  0.00000000E+00  0.00000000E+00
  0.00000000E+00  0.00000000E+00  0.00000000E+00
  0.00000000E+00  0.00000000E+00  0.00000000E+00
  0.00000000E+00  0.00000000E+00  0.00000000E+00
  0.00000000E+00  0.00000000E+00  0.00000000E+00
  0.00000000E+00  0.00000000E+00  0.00000000E+00
  0.00000000E+00  0.00000000E+00  0.00000000E+00
  0.00000000E+00  0.00000000E+00  0.00000000E+00
  0.00000000E+00  0.00000000E+00  0.00000000E+00
  0.00000000E+00  0.00000000E+00  0.00000000E+00
  0.00000000E+00  0.00000000E+00  0.00000000E+00
  0.00000000E+00  0.00000000E+00  0.00000000E+00
  0.00000000E+00  0.00000000E+00  0.00000000E+00
  0.00000000E+00  0.00000000E+00  0.00000000E+00
  0.00000000E+00  0.00000000E+00  0.00000000E+00
  0.00000000E+00  0.00000000E+00  0.00000000E+00
  0.00000000E+00  0.00000000E+00  0.00000000E+00
  0.00000000E+00  0.00000000E+00  0.00000000E+00
  0.00000000E+00  0.00000000E+00  0.00000000E+00
  0.00000000E+00  0.00000000E+00  0.00000000E+00
  0.00000000E+00  0.00000000E+00  0.00000000E+00
  0.00000000E+00  0.00000000E+00  0.00000000E+00
  0.00000000E+00  0.00000000E+00  0.00000000E+00
  0.00000000E+00  0.00000000E+00  0.00000000E+00
  0.00000000E+00  0.00000000E+00  0.00000000E+00
  0.00000000E+00  0.00000000E+00  0.00000000E+00
  0.00000000E+00  0.00000000E+00  0.00000000E+00
  0.00000000E+00  0.00000000E+00  0.00000000E+00
  0.00000000E+00  0.00000000E+00  0.00000000E+00
  0.00000000E+00  0.00000000E+00  0.00000000E+00
  0.00000000E+00  0.00000000E+00  0.00000000E+00
  0.00000000E+00  0.00000000E+00  0.00000000E+00
  0.00000000E+00  0.00000000E+00  0.00000000E+00
  0.00000000E+00  0.00000000E+00  0.00000000E+00
  0.00000000E+00  0.00000000E+00  0.00000000E+00
  0.00000000E+00  0.00000000E+00  0.00000000E+00
  0.00000000E+00  0.00000000E+00  0.00000000E+00
  0.00000000E+00  0.00000000E+00  0.00000000E+00
  0.00000000E+00  0.00000000E+00  0.00000000E+00
  0.00000000E+00  0.00000000E+00  0.00000000E+00
  0.00000000E+00  0.00000000E+00  0.00000000E+00
  0.00000000E+00  0.00000000E+00  0.00000000E+00
  0.00000000E+00  0.00000000E+00  0.00000000E+00
  0.00000000E+00  0.00000000E+00  0.00000000E+00
  0.00000000E+00  0.00000000E+00  0.00000000E+00
  0.00000000E+00  0.00000000E+00  0.00000000E+00
  0.00000000E+00  0.00000000E+00  0.00000000E+00
  0.00000000E+00  0.00000000E+00  0.00000000E+00
  0.00000000E+00  0.00000000E+00  0.00000000E+00
  0.00000000E+00  0.00000000E+00  0.00000000E+00
  0.00000000E+00  0.00000000E+00  0.00000000E+00
  0.00000000E+00  0.00000000E+00  0.00000000E+00
  0.00000000E+00  0.00000000E+00  0.00000000E+00
