Ca4 Co4 P6 O24                          
   1.00000000000000     
     2.5724939999999998    7.2506579999999996    4.3622019999999999
     0.0073280000000000    0.0035980000000000    8.6760669999999998
     7.6235229999999996    0.0391880000000000    4.2145380000000001
   Ca   Co   P    O 
     4     4     6    24
Direct
  0.3359903253738211  0.7048220411959780  0.5403203867708880
  0.9376145928717587  0.0161714911619289  0.0198329975958354
  0.3743902141871248  0.7480622607088534  0.0965382443418514
  0.1103303516898586  0.3844989956451088  0.7547589160089709
  0.6550937649068552  0.6194462172693694  0.6569027331952262
  0.1450269255291841  0.1497004846648863  0.1578903841961000
  0.8480947633606767  0.8654241732909889  0.8368898443235809
  0.3522137483474662  0.3336989238140156  0.3534030621334210
  0.2455475625861550  0.5487974143403055  0.9584546219739993
  0.0323466333022470  0.7564561962892762  0.4518494111088250
  0.9510083531328025  0.2554650622266927  0.5513183978901870
  0.4609035453234916  0.0336013207115147  0.7485324918094824
  0.5455820546419853  0.9514208143576902  0.2417812728033138
  0.7578705743725240  0.4519765142298890  0.0328607062516155
  0.5591270394791391  0.8119756861403783  0.4326889231177949
  0.2652298696463998  0.0709830060094075  0.9096188832808273
  0.4260010519596628  0.5477380321858382  0.7883057493937473
  0.9162551512309401  0.2670591124805595  0.0756121792825395
  0.7746946465908755  0.4270335807222417  0.5500883315871316
  0.0624980142275937  0.8986141637412312  0.2550464792797169
  0.9104390364795734  0.0974490357044984  0.7366986727812495
  0.5827711690094058  0.4746029187176685  0.2004389725603338
  0.7296625430279354  0.8919225455273051  0.0921243393041210
  0.2224897914248131  0.5889195882132715  0.4400158859486344
  0.1031552862728375  0.7440257267821330  0.9030935944032960
  0.4320427005912089  0.1998833528559785  0.5773029402580949
  0.1928446724990641  0.3946920147265136  0.9789050013586361
  0.8761587046728961  0.6917089812367138  0.5217774185435810
  0.0179967867664874  0.1955586649406568  0.3858813827690948
  0.4959950901381147  0.8372601091865647  0.7565031356008892
  0.3848854581731561  0.9339025982233017  0.2277137976835990
  0.7332973848472475  0.4373853975206473  0.8778429599794301
  0.2688324369500577  0.5270364360305795  0.1311782763344538
  0.0218935354669225  0.8245089511977381  0.5908210939662235
  0.1040433565394563  0.2982342943012100  0.5450779537743760
  0.6059344848448996  0.0175637767690392  0.8039385194325559
  0.5088444296594621  0.1476950132215615  0.2248606343579033
  0.8321318618744787  0.6139141764155207  0.9420729129914696
 
             NaN             NaN             NaN
             NaN             NaN             NaN
             NaN             NaN             NaN
             NaN             NaN             NaN
             NaN             NaN             NaN
             NaN             NaN             NaN
             NaN             NaN             NaN
             NaN             NaN             NaN
             NaN             NaN             NaN
             NaN             NaN             NaN
             NaN             NaN             NaN
             NaN             NaN             NaN
             NaN             NaN             NaN
             NaN             NaN             NaN
             NaN             NaN             NaN
             NaN             NaN             NaN
             NaN             NaN             NaN
             NaN             NaN             NaN
             NaN             NaN             NaN
             NaN             NaN             NaN
             NaN             NaN             NaN
             NaN             NaN             NaN
             NaN             NaN             NaN
             NaN             NaN             NaN
             NaN             NaN             NaN
             NaN             NaN             NaN
             NaN             NaN             NaN
             NaN             NaN             NaN
             NaN             NaN             NaN
             NaN             NaN             NaN
             NaN             NaN             NaN
             NaN             NaN             NaN
             NaN             NaN             NaN
             NaN             NaN             NaN
             NaN             NaN             NaN
             NaN             NaN             NaN
             NaN             NaN             NaN
             NaN             NaN             NaN
