Ca4 Co4 P6 O24                          
   1.00000000000000     
     2.5724939999999998    7.2506579999999996    4.3622019999999999
     0.0073280000000000    0.0035980000000000    8.6760669999999998
     7.6235229999999996    0.0391880000000000    4.2145380000000001
   Ca   Co   P    O 
     4     4     6    24
Direct
  0.3359725548127729  0.7048420803919510  0.5403125308996842
  0.9376415514375136  0.0161545866565840  0.0198265079761847
  0.3744111679317393  0.7480505106909373  0.0965481513132870
  0.1103235541537229  0.3845134276106571  0.7547719888112450
  0.6550977769837762  0.6194513527483322  0.6568869473076903
  0.1449639608782778  0.1496849524608389  0.1577481487953508
  0.8480978253836514  0.8654274087285968  0.8369248861326796
  0.3521936160811110  0.3337495253160346  0.3534106913479713
  0.2455642633390561  0.5487706461429352  0.9584735521301262
  0.0323810926415309  0.7564291411892405  0.4518530656749459
  0.9510181702732732  0.2554616862831490  0.5513032707287393
  0.4609149686197762  0.0336167608742011  0.7485345896121698
  0.5455867372468423  0.9514695132248444  0.2417865426228774
  0.7578560290897114  0.4519834830605002  0.0328765486188527
  0.5590966734690334  0.8120155037809843  0.4326968401497959
  0.2651977316835554  0.0709893046308110  0.9096551136984623
  0.4259892124694117  0.5477197687657372  0.7882927263414305
  0.9162486508347355  0.2670635693308541  0.0756392798460197
  0.7747564109928702  0.4270152831238933  0.5500281347287971
  0.0625559920624553  0.8985859774052477  0.2550365015045169
  0.9104556797937021  0.0974718107254865  0.7366749688322225
  0.5827223640267764  0.4745485518444522  0.2004797774444272
  0.7296677214437921  0.8919314065252106  0.0921781534423845
  0.2225014695055826  0.5888812011738855  0.4400362084122191
  0.1031657006175842  0.7440074088100559  0.9030649944156736
  0.4320430011838123  0.1998753554682004  0.5773107747816306
  0.1928633314363958  0.3946593860160919  0.9789272833121024
  0.8761726541380442  0.6917144389228719  0.5217313456860906
  0.0180202249125351  0.1955262351717735  0.3858300205246796
  0.4959658537006804  0.8372795861893645  0.7565330800299296
  0.3849062755777014  0.9339604072134762  0.2277085477369855
  0.7332902072130600  0.4373550913904494  0.8778673091358108
  0.2688117979184974  0.5270663037152421  0.1311787366266837
  0.0218836728949848  0.8245093073272167  0.5908136895967919
  0.1040949472302698  0.2982132114069584  0.5450387138148589
  0.6059192337050956  0.0175703557073744  0.8039740948899562
  0.5088034563203068  0.1477489065276788  0.2248656311542722
  0.8320823800911029  0.6138956260634333  0.9421221602824893
 
             NaN             NaN             NaN
             NaN             NaN             NaN
             NaN             NaN             NaN
             NaN             NaN             NaN
             NaN             NaN             NaN
             NaN             NaN             NaN
             NaN             NaN             NaN
             NaN             NaN             NaN
             NaN             NaN             NaN
             NaN             NaN             NaN
             NaN             NaN             NaN
             NaN             NaN             NaN
             NaN             NaN             NaN
             NaN             NaN             NaN
             NaN             NaN             NaN
             NaN             NaN             NaN
             NaN             NaN             NaN
             NaN             NaN             NaN
             NaN             NaN             NaN
             NaN             NaN             NaN
             NaN             NaN             NaN
             NaN             NaN             NaN
             NaN             NaN             NaN
             NaN             NaN             NaN
             NaN             NaN             NaN
             NaN             NaN             NaN
             NaN             NaN             NaN
             NaN             NaN             NaN
             NaN             NaN             NaN
             NaN             NaN             NaN
             NaN             NaN             NaN
             NaN             NaN             NaN
             NaN             NaN             NaN
             NaN             NaN             NaN
             NaN             NaN             NaN
             NaN             NaN             NaN
             NaN             NaN             NaN
             NaN             NaN             NaN
