Ca4 Mn4 Si6 O24                         
   1.00000000000000     
     0.1764529669463582   -0.0215488330783585    8.7212003404484832
     7.5251466138949166   -0.0314401145289133    4.4127524367100088
     2.5173341075382436    7.0774396887702160    4.2756020642463621
   Ca   Mn   Si   O 
     4     4     6    24
Direct
  0.4978768872223309  0.4987579715543306  0.4968523913890737
  0.9986926849423489  0.9978950516412718  0.9968990930412217
  0.0972721349733048  0.3987407178510274  0.7478345918532475
  0.8988129496628916  0.5973848369511369  0.2480104386691294
  0.6432474003203174  0.6450887278064420  0.6377488075544615
  0.1450208841474781  0.1433811867384371  0.1377055403526060
  0.8511485271802807  0.8525550722845059  0.8575379801837559
  0.3527183089618036  0.3509431324468938  0.3575918722856427
  0.5301620916282425  0.9661602853441368  0.2473664536572331
  0.7330842666555074  0.4719846532897918  0.0410606014241597
  0.2629247884806886  0.5238947046349909  0.9541249178387465
  0.0239342293097148  0.7629189632492964  0.4542795149012729
  0.9719461277390186  0.2330861387827195  0.5408672060929345
  0.4660400305178334  0.0299842903368804  0.7473376998614469
  0.7747461400050737  0.4216883428317978  0.5542466907434002
  0.0481481246575222  0.9434655600238043  0.2707506721587306
  0.5672549685495915  0.7580178244101172  0.4151929794150124
  0.2580678698979461  0.0670060558407880  0.9154065035401617
  0.4432898098470412  0.5482966547124944  0.7704271626272546
  0.9217182233889789  0.2747033120572874  0.0539332104487639
  0.0742563356963779  0.7211813800569834  0.9409823040349916
  0.4289174660033381  0.2382585679989994  0.5795834612416463
  0.9478273792993235  0.0523455015264579  0.7241548117278879
  0.5524575811373238  0.4477907374168645  0.2245033123909955
  0.7382036393613826  0.9291273498416475  0.0793744952031538
  0.2211302380864846  0.5742616540616627  0.4407965352451623
  0.3580698667825700  0.9937621329638123  0.2027473289411166
  0.7434518408061157  0.5072922346772109  0.8332751512427891
  0.2164688621306051  0.3606322972179756  0.9625432922844831
  0.8605281027532741  0.7166074445991851  0.4628263071034321
  0.0067367443679661  0.2441558151307877  0.3329494015474759
  0.4930284106791663  0.8584256942799298  0.7023603058280420
  0.5026744346795643  0.1381208221861689  0.2920513851430570
  0.7794497395550668  0.6351835925974756  0.0328088219288889
  0.2522825579037359  0.4888946680522666  0.1619558925550275
  0.9893898487780073  0.7517092272270868  0.6622121155544519
  0.1354033817246142  0.2791597859807814  0.5325434352861472
  0.6383171221672060  0.0018376113965835  0.7919573147030252
 
  0.00000000E+00  0.00000000E+00  0.00000000E+00
  0.00000000E+00  0.00000000E+00  0.00000000E+00
  0.00000000E+00  0.00000000E+00  0.00000000E+00
  0.00000000E+00  0.00000000E+00  0.00000000E+00
  0.00000000E+00  0.00000000E+00  0.00000000E+00
  0.00000000E+00  0.00000000E+00  0.00000000E+00
  0.00000000E+00  0.00000000E+00  0.00000000E+00
  0.00000000E+00  0.00000000E+00  0.00000000E+00
  0.00000000E+00  0.00000000E+00  0.00000000E+00
  0.00000000E+00  0.00000000E+00  0.00000000E+00
  0.00000000E+00  0.00000000E+00  0.00000000E+00
  0.00000000E+00  0.00000000E+00  0.00000000E+00
  0.00000000E+00  0.00000000E+00  0.00000000E+00
  0.00000000E+00  0.00000000E+00  0.00000000E+00
  0.00000000E+00  0.00000000E+00  0.00000000E+00
  0.00000000E+00  0.00000000E+00  0.00000000E+00
  0.00000000E+00  0.00000000E+00  0.00000000E+00
  0.00000000E+00  0.00000000E+00  0.00000000E+00
  0.00000000E+00  0.00000000E+00  0.00000000E+00
  0.00000000E+00  0.00000000E+00  0.00000000E+00
  0.00000000E+00  0.00000000E+00  0.00000000E+00
  0.00000000E+00  0.00000000E+00  0.00000000E+00
  0.00000000E+00  0.00000000E+00  0.00000000E+00
  0.00000000E+00  0.00000000E+00  0.00000000E+00
  0.00000000E+00  0.00000000E+00  0.00000000E+00
  0.00000000E+00  0.00000000E+00  0.00000000E+00
  0.00000000E+00  0.00000000E+00  0.00000000E+00
  0.00000000E+00  0.00000000E+00  0.00000000E+00
  0.00000000E+00  0.00000000E+00  0.00000000E+00
  0.00000000E+00  0.00000000E+00  0.00000000E+00
  0.00000000E+00  0.00000000E+00  0.00000000E+00
  0.00000000E+00  0.00000000E+00  0.00000000E+00
  0.00000000E+00  0.00000000E+00  0.00000000E+00
  0.00000000E+00  0.00000000E+00  0.00000000E+00
  0.00000000E+00  0.00000000E+00  0.00000000E+00
  0.00000000E+00  0.00000000E+00  0.00000000E+00
  0.00000000E+00  0.00000000E+00  0.00000000E+00
  0.00000000E+00  0.00000000E+00  0.00000000E+00
