Ca2 V4 S6 O24                           
   1.00000000000000     
     7.6679620000000002    0.1382970000000000    4.5401330000000000
     2.6398229999999998    7.1784340000000002    4.5371490000000003
     0.1283940000000000    0.1356490000000000    8.9322780000000002
   Ca   V    S    O 
     2     4     6    24
Direct
  0.3198188320000361  0.7062837896514145  0.5476362417510157
  0.9715046265900816  0.0556778678051145 -0.0263593732666965
  0.6578023990221458  0.6229784730453913  0.6632721883101873
  0.1536835866414240  0.1387919720883664  0.1447224948890845
  0.8391362476157265  0.8598024212173691  0.8462498077713494
  0.3483768439128751  0.3609065197697998  0.3510445019030569
  0.9601154445366018  0.2510755112557899  0.5443846625453025
  0.4465528055237885  0.0338935988817245  0.7568750513559702
  0.5488964712464226  0.9593825989841542  0.2459615405176516
  0.7513634677569909  0.4433079564388878  0.0408790159197852
  0.2430938152395873  0.5492457359792384  0.9605200977072695
  0.0369151783469035  0.7564494816135919  0.4393077529844657
  0.4268666867655196  0.5287507883941568  0.8036446572149695
  0.8872623720699221  0.2610142401779946  0.1207223779262017
  0.7970104494763612  0.4244174993694353  0.5261216384562554
  0.0733400324314198  0.8990888998757059  0.2503020887490727
  0.5510798637507230  0.8210180778271610  0.4355068085439957
  0.2504372825389744  0.0994902067469419  0.8873002029134394
  0.7349677185310259  0.9028530118532451  0.1059959392521955
  0.2144942330464519  0.5911567102218914  0.4488461867277656
  0.1148359714456688  0.7386510293452657  0.8714887290844815
  0.4627040247504897  0.1736130281353835  0.5689294748440346
  0.9023674955300398  0.1060350698461799  0.7314843900052761
  0.5680679216082805  0.4742592147762632  0.1854618790218272
  1.0318988608143267  0.1770292057098566  0.4000746541766448
  0.4779746849490822  0.8499477741812791  0.7668466129865057
  0.4018442434247007  0.9465507752845742  0.2248323868455700
  0.7523381350010021  0.4126817874559388  0.8910666196317529
  0.1826381329887858  0.4022086739552356  1.0097676357043721
  0.8877190252215320  0.7066839772472389  0.4797039549368980
  0.1087502313578283  0.2769593835937516  0.5470499596873878
  0.5752477387289732  1.0183440496645437  0.8225780199809820
  0.5066613754419632  0.1478583486585889  0.2288242129532095
  0.8155074153791241  0.5974567602035958  0.9613046380576443
  0.2489880855031833  0.5541775444030190  0.1165326848256260
 -0.0014494288900703  0.8298856631518328  0.5755353195401973
 
             NaN             NaN             NaN
             NaN             NaN             NaN
             NaN             NaN             NaN
             NaN             NaN             NaN
             NaN             NaN             NaN
             NaN             NaN             NaN
             NaN             NaN             NaN
             NaN             NaN             NaN
             NaN             NaN             NaN
             NaN             NaN             NaN
             NaN             NaN             NaN
             NaN             NaN             NaN
             NaN             NaN             NaN
             NaN             NaN             NaN
             NaN             NaN             NaN
             NaN             NaN             NaN
             NaN             NaN             NaN
             NaN             NaN             NaN
             NaN             NaN             NaN
             NaN             NaN             NaN
             NaN             NaN             NaN
             NaN             NaN             NaN
             NaN             NaN             NaN
             NaN             NaN             NaN
             NaN             NaN             NaN
             NaN             NaN             NaN
             NaN             NaN             NaN
             NaN             NaN             NaN
             NaN             NaN             NaN
             NaN             NaN             NaN
             NaN             NaN             NaN
             NaN             NaN             NaN
             NaN             NaN             NaN
             NaN             NaN             NaN
             NaN             NaN             NaN
             NaN             NaN             NaN
