Ca2 V4 S6 O24
1.0
7.667962 0.138297 4.540133
2.639823 7.178434 4.537149
0.128394 0.135649 8.932278
Ca V S O
2 4 6 24
direct
0.378357 0.683562 0.542691 Ca
0.974662 1.014489 1.005630 Ca
0.647777 0.641572 0.651959 V
0.142989 0.145701 0.144440 V
0.846268 0.851614 0.844233 V
0.358952 0.350961 0.347554 V
0.960976 0.247238 0.539935 S
0.437712 0.041071 0.751666 S
0.554079 0.955515 0.242275 S
0.746672 0.448582 0.044766 S
0.246404 0.546660 0.952623 S
0.040441 0.749672 0.451701 S
0.406510 0.562557 0.773208 O
0.891755 0.261157 0.092404 O
0.807062 0.420337 0.547109 O
0.077883 0.895766 0.263860 O
0.569241 0.783027 0.408683 O
0.251057 0.081636 0.898590 O
0.727964 0.917676 0.087184 O
0.195019 0.575174 0.448146 O
0.091909 0.735198 0.919460 O
0.441389 0.210463 0.585608 O
0.923488 0.096272 0.726702 O
0.578843 0.457352 0.210068 O
0.981832 0.195298 0.399697 O
0.456356 0.890584 0.711872 O
0.391812 0.995365 0.209781 O
0.711693 0.458582 0.897572 O
0.190190 0.401189 0.990695 O
0.870103 0.735848 0.495376 O
0.131508 0.256311 0.507932 O
0.581652 -0.012511 0.818645 O
0.541453 0.108997 0.268325 O
0.814539 0.591848 -0.011153 O
0.290774 0.518705 0.101447 O
0.028070 0.801846 0.589110 O
