Ca1 Fe4 S6 O24                          
   1.00000000000000     
     7.5971010000000003    0.1456450000000000    4.4967670000000002
     2.6221100000000002    7.1281350000000003    4.5287420000000003
     0.2017310000000000    0.1791750000000000    8.8318619999999992
   Ca   Fe   S    O 
     1     4     6    24
Direct
  0.2579137999505122  0.8437052683039070  0.5867759358101523
  0.6587659864438260  0.6514516586120994  0.6296820248392513
  0.1412961071749948  0.1519927024423647  0.1307804502613542
  0.8292919695317087  0.8401961530426354  0.8612214539750843
  0.3589351676507495  0.3437665682413685  0.3598866338650484
  0.9595314474612558  0.2502545013368948  0.5222906609957289
  0.4413523270480776  0.0263278138400942  0.7514496435624870
  0.5491997794490395  0.9671868331054014  0.2413122960559212
  0.7462846086034403  0.4547317655733726  0.0537958144099237
  0.2580298365082805  0.5252438463443317  0.9532813901100263
  0.0437207703588180  0.7420917510246267  0.4601021607589142
  0.4214370465716912  0.5585035691742325  0.7748488783237530
  0.9237737498752321  0.2897788426593522  0.0373864920925912
  0.7949796483622543  0.3899065831922265  0.6025136308079422
  0.0479440275760272  0.9343993236582149  0.3327401075089449
  0.5883356994054448  0.7777376554005015  0.3944306031791067
  0.3029035954926658  0.0189522404061249  0.9427416063558687
  0.6978200597608191  0.9602655562042892  0.0506863865179946
  0.2222890567211717  0.6032444631080438  0.3875514465937189
  0.0953446836334799  0.7046314811948627  0.9231664562239981
  0.3904828309137502  0.2197016231540915  0.6128284748811118
  0.9504681880282326  0.0544521821494351  0.6560423699892832
  0.5973928163807126  0.4058262984548692  0.2352438768062147
  0.9687584484868438  0.2831699718632462  0.3370172896810987
  0.4435524063232072  0.8901756813199991  0.6993194584973349
  0.3604476814710422  0.0091877187541944  0.2478925119208317
  0.6851206541373720  0.5225141697299504  0.8945227643035991
  0.2277117282943637  0.3675126749954855  0.9692640106083411
  0.8794641342281023  0.7218246217625686  0.4801655008343471
  0.1407369258598549  0.2400121252492459  0.5060541438093886
  0.6323611475518243  0.9710288518043286  0.7443460902804293
  0.5450637639239133  0.1079836154167585  0.2797418314986799
  0.7783862114174285  0.6103205158488926  0.0407992171114745
  0.2921145000361383  0.4821570898208954  0.1168849433698217
  0.0346221899624375  0.7131108923489122  0.6465254087223790
 
             NaN             NaN             NaN
             NaN             NaN             NaN
             NaN             NaN             NaN
             NaN             NaN             NaN
             NaN             NaN             NaN
             NaN             NaN             NaN
             NaN             NaN             NaN
             NaN             NaN             NaN
             NaN             NaN             NaN
             NaN             NaN             NaN
             NaN             NaN             NaN
             NaN             NaN             NaN
             NaN             NaN             NaN
             NaN             NaN             NaN
             NaN             NaN             NaN
             NaN             NaN             NaN
             NaN             NaN             NaN
             NaN             NaN             NaN
             NaN             NaN             NaN
             NaN             NaN             NaN
             NaN             NaN             NaN
             NaN             NaN             NaN
             NaN             NaN             NaN
             NaN             NaN             NaN
             NaN             NaN             NaN
             NaN             NaN             NaN
             NaN             NaN             NaN
             NaN             NaN             NaN
             NaN             NaN             NaN
             NaN             NaN             NaN
             NaN             NaN             NaN
             NaN             NaN             NaN
             NaN             NaN             NaN
             NaN             NaN             NaN
             NaN             NaN             NaN
