Ca8 Fe4 Si6 O24                         
   1.00000000000000     
     7.7872214330633422   -0.2086336239863713    4.0622602295164345
     2.3673940147635903    7.4244514663958485    4.0620672113095457
    -0.2755977337799415   -0.1956692657663300    8.7619626902314511
   Ca   Fe   Si   O 
     8     4     6    24
Direct
  0.4987564086618974  0.4982309939061551  0.4990726983278293
  0.9981604012852117  0.9987011778944961  0.9991695857599439
  0.3813818954647701  0.7490414421008751  0.1148150592091710
  0.8815328389999664  0.6144695917214449  0.2486823249087280
  0.1145131412783158  0.3813249607912610  0.7488198108221269
  0.2490788989791710  0.8812392215369513  0.6148624405548304
  0.7454617861732160  0.1164697043112071  0.3826680915920235
  0.6164667258690741  0.2454656277791116  0.8826053283289852
  0.6490718991751052  0.6487134621354329  0.6497660753269372
  0.1487335874466211  0.1490946477225208  0.1497035349124403
  0.8483202660325162  0.8472644442359325  0.8470103370613984
  0.3472752113114979  0.3483498207014009  0.3469484955402180
  0.9467376695069376  0.2474912006347196  0.5509487808298843
  0.4452869922987190  0.0514650494125775  0.7464359218187369
  0.5515078705773746  0.9451818280332205  0.2463811424024556
  0.7473748188238858  0.4466126514784747  0.0510093107908602
  0.2495265303715186  0.5494946021822642  0.9472665859477587
  0.0494380142919368  0.7495859391175159  0.4473035443861733
  0.4044852527712877  0.5675764994945638  0.7551839488931051
  0.9040870643675021  0.2564701485750120  0.0676820248888816
  0.7564875458931937  0.4040623962819367  0.5676973906428344
  0.0674334474886891  0.9045882379277899  0.2553035551950700
  0.5690204190456711  0.7545402501655190  0.4031627511156017
  0.2544860514118810  0.0690933376930545  0.9031150627742051
  0.7428603567849734  0.9263649819787503  0.0896556090849785
  0.2407831890369536  0.5951651505778770  0.4311144477813045
  0.0949819592031744  0.7407530403709117  0.9310875119592481
  0.4266683772231801  0.2427583797107218  0.5897714552356277
  0.9277701401484109  0.0925387788495158  0.7432455735437387
  0.5923045571843488  0.4274703312899888  0.2433281846459465
  0.9743712456849920  0.1911975126879994  0.3859225898835277
  0.4739304741996335  0.8857762035192351  0.6907643960666903
  0.3857411257396848  0.9738164980177544  0.1907760222039911
  0.6911979881672536  0.4742597218216318  0.8859099399850692
  0.1903921394817374  0.3859644996390941  0.9762248215869676
  0.8859481670150373  0.6903963448288479  0.4761420944502959
  0.1132082150657752  0.3018320281109723  0.5226433143187279
  0.6106301782900374  0.0249993312591812  0.8005378997481643
  0.5251423191206115  0.1105999295078277  0.3002495139828838
  0.8014062978644176  0.6130798181649979  0.0229974186118369
  0.3085113394099182  0.5192673009413511  0.1116294919058731
  0.0189271928539512  0.8086329128899621  0.6117859129749874
 
  0.00000000E+00  0.00000000E+00  0.00000000E+00
  0.00000000E+00  0.00000000E+00  0.00000000E+00
  0.00000000E+00  0.00000000E+00  0.00000000E+00
  0.00000000E+00  0.00000000E+00  0.00000000E+00
  0.00000000E+00  0.00000000E+00  0.00000000E+00
  0.00000000E+00  0.00000000E+00  0.00000000E+00
  0.00000000E+00  0.00000000E+00  0.00000000E+00
  0.00000000E+00  0.00000000E+00  0.00000000E+00
  0.00000000E+00  0.00000000E+00  0.00000000E+00
  0.00000000E+00  0.00000000E+00  0.00000000E+00
  0.00000000E+00  0.00000000E+00  0.00000000E+00
  0.00000000E+00  0.00000000E+00  0.00000000E+00
  0.00000000E+00  0.00000000E+00  0.00000000E+00
  0.00000000E+00  0.00000000E+00  0.00000000E+00
  0.00000000E+00  0.00000000E+00  0.00000000E+00
  0.00000000E+00  0.00000000E+00  0.00000000E+00
  0.00000000E+00  0.00000000E+00  0.00000000E+00
  0.00000000E+00  0.00000000E+00  0.00000000E+00
  0.00000000E+00  0.00000000E+00  0.00000000E+00
  0.00000000E+00  0.00000000E+00  0.00000000E+00
  0.00000000E+00  0.00000000E+00  0.00000000E+00
  0.00000000E+00  0.00000000E+00  0.00000000E+00
  0.00000000E+00  0.00000000E+00  0.00000000E+00
  0.00000000E+00  0.00000000E+00  0.00000000E+00
  0.00000000E+00  0.00000000E+00  0.00000000E+00
  0.00000000E+00  0.00000000E+00  0.00000000E+00
  0.00000000E+00  0.00000000E+00  0.00000000E+00
  0.00000000E+00  0.00000000E+00  0.00000000E+00
  0.00000000E+00  0.00000000E+00  0.00000000E+00
  0.00000000E+00  0.00000000E+00  0.00000000E+00
  0.00000000E+00  0.00000000E+00  0.00000000E+00
  0.00000000E+00  0.00000000E+00  0.00000000E+00
  0.00000000E+00  0.00000000E+00  0.00000000E+00
  0.00000000E+00  0.00000000E+00  0.00000000E+00
  0.00000000E+00  0.00000000E+00  0.00000000E+00
  0.00000000E+00  0.00000000E+00  0.00000000E+00
  0.00000000E+00  0.00000000E+00  0.00000000E+00
  0.00000000E+00  0.00000000E+00  0.00000000E+00
  0.00000000E+00  0.00000000E+00  0.00000000E+00
  0.00000000E+00  0.00000000E+00  0.00000000E+00
  0.00000000E+00  0.00000000E+00  0.00000000E+00
  0.00000000E+00  0.00000000E+00  0.00000000E+00
