Ca1 Fe4 S6 O24                          
   1.00000000000000     
     7.5503229999999997    0.2386510000000000    4.6262330000000000
     2.7152550000000000    7.0389980000000003    4.6231030000000004
     0.3555070000000000    0.2471140000000000    8.8518380000000008
   Ca   Fe   S    O 
     1     4     6    24
Direct
  0.4406261225036509  0.5538592004505696  0.5051241316153740
  0.6485833865208276  0.6473103095192981  0.6524414620537977
  0.1464127613267923  0.1515877261531410  0.1443706859521744
  0.8450204064819955  0.8537361843894430  0.8475798703830152
  0.3436769233503036  0.3480218914727101  0.3576605386251244
  0.9560199115064726  0.2509093095407003  0.5339403721706644
  0.4542817776971430  0.0528559613137620  0.7473029039113873
  0.5389637471706320  0.9537793110040914  0.2505505026341988
  0.7358594669924311  0.4680480671203180  0.0510933465061181
  0.2472134379368490  0.5360776396069132  0.9566057637329130
  0.0335085448854873  0.7560379195534364  0.4527012276684097
  0.3853068731630436  0.6172051377073074  0.7633260360723899
  0.9339396786011533  0.3307633726645600  0.0280242322287842
  0.7576911205579924  0.3832726375337784  0.6099669638100503
  0.0034679595391670  0.9588282531304347  0.3262811015006811
  0.6078090523036259  0.7571588677228183  0.3919778350503872
  0.3102920715876978  0.0265431491649171  0.9451486125845084
  0.6836365994168924  0.9709796720528249  0.0558550278016420
  0.2333994057146792  0.6294066125443821  0.3672311558921988
  0.0509459193075190  0.6742063080012074  0.9698795720919405
  0.3771637962937591  0.2538328867697522  0.6148895331695301
  0.9773818027697758  0.0480513653818571  0.6597905557888863
  0.5993911190917889  0.3965133257893915  0.2497834181196436
  0.9879265740363791  0.2842154090356132  0.3375590052884702
  0.4917599144807315  0.9099711780232921  0.6851700830148539
  0.3565349356997761  0.9631907092997195  0.2693975102865056
  0.6804738472176920  0.4946752503303840  0.9077947735836474
  0.2781386397251724  0.3529750912883570  0.9588500775161015
  0.8939322783001861  0.6986056961014129  0.4771551952836295
  0.0988659334263352  0.2932848428099917  0.5260390037622693
  0.6341967033132078  0.0378684434894230  0.7346441151527332
  0.5050064412552083  0.1024121793148122  0.3021235552231673
  0.7139946211557068  0.6562657214031115  0.0296319691605655
  0.2901550515855593  0.5024794924007143  0.1110359966193578
  0.0237640958430820  0.7191798025350091  0.6425477225461682
 
             NaN             NaN             NaN
             NaN             NaN             NaN
             NaN             NaN             NaN
             NaN             NaN             NaN
             NaN             NaN             NaN
             NaN             NaN             NaN
             NaN             NaN             NaN
             NaN             NaN             NaN
             NaN             NaN             NaN
             NaN             NaN             NaN
             NaN             NaN             NaN
             NaN             NaN             NaN
             NaN             NaN             NaN
             NaN             NaN             NaN
             NaN             NaN             NaN
             NaN             NaN             NaN
             NaN             NaN             NaN
             NaN             NaN             NaN
             NaN             NaN             NaN
             NaN             NaN             NaN
             NaN             NaN             NaN
             NaN             NaN             NaN
             NaN             NaN             NaN
             NaN             NaN             NaN
             NaN             NaN             NaN
             NaN             NaN             NaN
             NaN             NaN             NaN
             NaN             NaN             NaN
             NaN             NaN             NaN
             NaN             NaN             NaN
             NaN             NaN             NaN
             NaN             NaN             NaN
             NaN             NaN             NaN
             NaN             NaN             NaN
             NaN             NaN             NaN
