Ca1 Mn4 S6 O24                          
   1.00000000000000     
     7.6865500000000004    0.1304360000000000    4.9871119999999998
     2.7892120000000000    6.8965639999999997    4.8764950000000002
     0.5965110000000000    0.1687410000000000    8.9939859999999996
   Ca   Mn   S    O 
     1     4     6    24
Direct
  0.4691642393857315  0.5420095215546553  0.4846045140953233
  0.6408753747582258  0.6533180574339972  0.6523310816386489
  0.1516798023682007  0.1528771083921359  0.1498042908119427
  0.8377927336684529  0.8514424835877537  0.8460166946108646
  0.3432377469451301  0.3509129197133287  0.3543571800962126
  0.9503531390469078  0.2441238504501397  0.5395648927692408
  0.4410291691206951  0.0617362013104410  0.7522803612034584
  0.5484537820605384  0.9469521638077455  0.2429426412552781
  0.7438472551817102  0.4698837354970304  0.0498445448791447
  0.2416920386304766  0.5352210330080683  0.9555075809188900
  0.0357924517580658  0.7621771788108374  0.4544931621295168
  0.3764399974543109  0.6172710007472465  0.7500949196602736
  0.9441110874911151  0.3464068668119849  0.0155456114915016
  0.7509108268345630  0.3711937624278015  0.6187249950632108
  0.0080585551134263  0.9721867739976248  0.3329218915994233
  0.6374299873494121  0.7483914145847487  0.3679066293450995
  0.3042766762832462  0.0237993785097903  0.9655653179286035
  0.6822285016035645  0.9846534180317945  0.0307855278958601
  0.2373101993914072  0.6400374114714917  0.3668656114296023
  0.0428350000577599  0.6573936566150503  0.9801062404764623
  0.3575019986327420  0.2666816762462385  0.6304149760657142
  0.9746881393380644  0.0336418502721536  0.6618951773281996
  0.6115899637981159  0.3885342415521599  0.2564988407812415
  0.9877994346954844  0.2834532454247810  0.3365357469090305
  0.4627682709715382  0.9221888965365108  0.6991571446897781
  0.3684969032305777  0.9438484821245874  0.2819846650965696
  0.6886092828052702  0.5025824162114072  0.9102360650114040
  0.2866183860378864  0.3366442216961034  0.9687138975701168
  0.8995347416832394  0.7144636413895309  0.4708151578169890
  0.0886824188771810  0.2834347593304026  0.5306224417509472
  0.6264342038712993  0.0408822293625371  0.7220349391746813
  0.5127442328585240  0.0982582030589239  0.2896193291084046
  0.7054045222680057  0.6656931795974291  0.0384666896358104
  0.2855801177724248  0.5118200469581310  0.0987355130996704
  0.0100345691708504  0.7181601130363593  0.6544483933774314
 
             NaN             NaN             NaN
             NaN             NaN             NaN
             NaN             NaN             NaN
             NaN             NaN             NaN
             NaN             NaN             NaN
             NaN             NaN             NaN
             NaN             NaN             NaN
             NaN             NaN             NaN
             NaN             NaN             NaN
             NaN             NaN             NaN
             NaN             NaN             NaN
             NaN             NaN             NaN
             NaN             NaN             NaN
             NaN             NaN             NaN
             NaN             NaN             NaN
             NaN             NaN             NaN
             NaN             NaN             NaN
             NaN             NaN             NaN
             NaN             NaN             NaN
             NaN             NaN             NaN
             NaN             NaN             NaN
             NaN             NaN             NaN
             NaN             NaN             NaN
             NaN             NaN             NaN
             NaN             NaN             NaN
             NaN             NaN             NaN
             NaN             NaN             NaN
             NaN             NaN             NaN
             NaN             NaN             NaN
             NaN             NaN             NaN
             NaN             NaN             NaN
             NaN             NaN             NaN
             NaN             NaN             NaN
             NaN             NaN             NaN
             NaN             NaN             NaN
