Ca1 Mn4 S6 O24
1.0
7.686550 0.130436 4.987112
2.789212 6.896564 4.876495
0.596511 0.168741 8.993986
Ca Mn S O
1 4 6 24
direct
0.468618 0.540459 0.513756 Ca
0.648860 0.646371 0.646315 Mn
0.154261 0.148771 0.147776 Mn
0.835870 0.847717 0.846014 Mn
0.349845 0.348849 0.348136 Mn
0.953194 0.240530 0.537451 S
0.443594 0.054369 0.751519 S
0.548734 0.941540 0.242849 S
0.750362 0.461532 0.044064 S
0.245395 0.531527 0.952327 S
0.043136 0.755461 0.455148 S
0.379580 0.612435 0.747860 O
0.950963 0.340999 0.010630 O
0.755062 0.367043 0.618916 O
0.016362 0.965375 0.330764 O
0.635432 0.742007 0.367538 O
0.310909 0.015303 0.964899 O
0.682690 0.978054 0.030450 O
0.243948 0.630639 0.373976 O
0.047563 0.655796 0.978496 O
0.354061 0.254392 0.629950 O
0.975560 0.031686 0.662569 O
0.619759 0.377692 0.250416 O
0.985475 0.280129 0.336646 O
0.473933 0.906919 0.702549 O
0.366174 0.947958 0.279540 O
0.699198 0.489299 0.904046 O
0.286821 0.334939 0.964453 O
0.907105 0.708810 0.469594 O
0.092284 0.280424 0.524588 O
0.625836 0.047509 0.714466 O
0.518866 0.089546 0.290070 O
0.708331 0.659103 0.030899 O
0.291385 0.505260 0.095098 O
0.009474 0.717947 0.656211 O
