V2 P4 O14                               
   1.00000000000000     
     7.6532708832990108    0.0730543957568636   -1.8154423588157347
    -1.0262177923438358    5.8121866674229308   -1.5717396362633722
     0.0242887600297097    0.0476946414774533    6.1558455319271923
   V    P    O 
     2     4    14
Direct
  0.7238574221428706  0.6961735896398764  0.3683618740946315
  0.2761453259198632  0.3038163793837469  0.6316450072353348
  0.6912527058617854  0.5401494020526840  0.8171280868386717
  0.3087583766127224  0.4598568100280787  0.1828833263016563
  0.8332067299685093  0.2476328247730422  0.4871822960430521
  0.1667703072264644  0.7523660404936692  0.5128012541762885
  0.5210241349236640  0.3806825656741211  0.7807473684553656
  0.4789694998469898  0.6193077522457315  0.2192789432332702
  0.6729244923744702  0.6985303103851024  0.6629984161769826
  0.3270818441337795  0.3014643779194870  0.3370157292050209
  0.7726111064711745  0.6651175105690896  0.0685540514895138
  0.2273801702188720  0.3348755398254966  0.9314413866251385
  0.0214665734618080  0.2395747324014792  0.4825367674028911
  0.9785519035136474  0.7604686993856689  0.5174827335185412
  0.7397607174217526  0.3767391345302897  0.3270087855239510
  0.2602470293696015  0.6232718446002607  0.6729915061785050
  0.7267275407023064  0.0089096725947257  0.4266774625639229
  0.2732834262026032  0.9910939694389569  0.5732682563451519
  0.8290402025680450  0.3766343980682834  0.7437001891784902
  0.1709404910590635  0.6233344459902099  0.2562965594136273
 
  0.00000000E+00  0.00000000E+00  0.00000000E+00
  0.00000000E+00  0.00000000E+00  0.00000000E+00
  0.00000000E+00  0.00000000E+00  0.00000000E+00
  0.00000000E+00  0.00000000E+00  0.00000000E+00
  0.00000000E+00  0.00000000E+00  0.00000000E+00
  0.00000000E+00  0.00000000E+00  0.00000000E+00
  0.00000000E+00  0.00000000E+00  0.00000000E+00
  0.00000000E+00  0.00000000E+00  0.00000000E+00
  0.00000000E+00  0.00000000E+00  0.00000000E+00
  0.00000000E+00  0.00000000E+00  0.00000000E+00
  0.00000000E+00  0.00000000E+00  0.00000000E+00
  0.00000000E+00  0.00000000E+00  0.00000000E+00
  0.00000000E+00  0.00000000E+00  0.00000000E+00
  0.00000000E+00  0.00000000E+00  0.00000000E+00
  0.00000000E+00  0.00000000E+00  0.00000000E+00
  0.00000000E+00  0.00000000E+00  0.00000000E+00
  0.00000000E+00  0.00000000E+00  0.00000000E+00
  0.00000000E+00  0.00000000E+00  0.00000000E+00
  0.00000000E+00  0.00000000E+00  0.00000000E+00
  0.00000000E+00  0.00000000E+00  0.00000000E+00
