Ca1 Fe4 S6 O24                          
   1.00000000000000     
     7.5971010000000003    0.1456450000000000    4.4967670000000002
     2.6221100000000002    7.1281350000000003    4.5287420000000003
     0.2017310000000000    0.1791750000000000    8.8318619999999992
   Ca   Fe   S    O 
     1     4     6    24
Direct
  0.2576693469943568  0.8424569696722869  0.5939310998350724
  0.6616938147751157  0.6348576284414099  0.6423633344749344
  0.1350532211668990  0.1516498918693393  0.1377406686585072
  0.8310340558384968  0.8443475680782022  0.8553887526116136
  0.3616315855248004  0.3498287407046589  0.3565148248820358
  0.9590407322049110  0.2490157529646973  0.5215617835957291
  0.4415879077013202  0.0284664945958219  0.7503697624341326
  0.5479042918105653  0.9656419855859255  0.2404470403297531
  0.7477920809722931  0.4553536279483885  0.0484217619239322
  0.2584176111471269  0.5247190310409496  0.9571950077874921
  0.0476970903076685  0.7417274000620043  0.4565544016912440
  0.4196314955211878  0.5594241578882645  0.7780890066270809
  0.9296688623556761  0.2971086956816619  0.0269903863032997
  0.7892941389173445  0.3904896804006324  0.5979889120909193
  0.0391389669932988  0.9347432380127477  0.3219810182625985
  0.5890213697042809  0.7773399249334491  0.3954948188015064
  0.3086020022735055  0.0183213042519201  0.9410598646332664
  0.6887559114301819  0.9604777894904956  0.0563449788321067
  0.2316572455644256  0.6035222176601550  0.3881802196230962
  0.0917514506276832  0.7031912421911778  0.9248974455736877
  0.3859790250320211  0.2220579953866404  0.6129571514577679
  0.9526858378152112  0.0552352758970022  0.6624310975550054
  0.6065689009603589  0.3979288211667208  0.2335490844237131
  0.9647539166153259  0.2745381727652634  0.3426986488239528
  0.4479785194669272  0.8907962254313843  0.6971170911163496
  0.3554257399140927  0.9991263548655257  0.2561821066528994
  0.6852267358067011  0.5197043036423835  0.8940455858186930
  0.2350602001920052  0.3636395295332466  0.9776731733670979
  0.8921145523920972  0.7038173247719907  0.4821750466058149
  0.1353229958346838  0.2510690457790433  0.4993434551420429
  0.6349409148585837  0.9791809471999765  0.7380023121409529
  0.5357517452025151  0.1114747454915660  0.2802094899203633
  0.7736307127681992  0.6134973195965061  0.0376218046132763
  0.2911721290694596  0.4926495945791576  0.1173937813233396
  0.0333335036463902  0.7241573729944968  0.6399497259790184
 
             NaN             NaN             NaN
             NaN             NaN             NaN
             NaN             NaN             NaN
             NaN             NaN             NaN
             NaN             NaN             NaN
             NaN             NaN             NaN
             NaN             NaN             NaN
             NaN             NaN             NaN
             NaN             NaN             NaN
             NaN             NaN             NaN
             NaN             NaN             NaN
             NaN             NaN             NaN
             NaN             NaN             NaN
             NaN             NaN             NaN
             NaN             NaN             NaN
             NaN             NaN             NaN
             NaN             NaN             NaN
             NaN             NaN             NaN
             NaN             NaN             NaN
             NaN             NaN             NaN
             NaN             NaN             NaN
             NaN             NaN             NaN
             NaN             NaN             NaN
             NaN             NaN             NaN
             NaN             NaN             NaN
             NaN             NaN             NaN
             NaN             NaN             NaN
             NaN             NaN             NaN
             NaN             NaN             NaN
             NaN             NaN             NaN
             NaN             NaN             NaN
             NaN             NaN             NaN
             NaN             NaN             NaN
             NaN             NaN             NaN
             NaN             NaN             NaN
