Ca1 Ti4 P6 O24                          
   1.00000000000000     
     2.6763385533562025    7.0494599085765692    4.5829113746078400
     0.2930523624658738    0.2068399907419432    8.8165290672292471
     7.5381667492026097    0.2093011452473337    4.5817718843919826
   Ca   Ti   P    O 
     1     4     6    24
Direct
  0.4973670501723362  0.4973702986444906  0.4973814493436777
  0.6443784002440367  0.6443672392122224  0.6443779101048364
  0.1406840618491145  0.1406633683633913  0.1406841479240484
  0.8545432817204386  0.8545430112782384  0.8545339226372377
  0.3504776256490416  0.3504584740188577  0.3504371795842047
  0.2507299632106736  0.5279956722912758  0.9579121096625514
  0.0366670055987868  0.7446774881865750  0.4669535607048161
  0.9579246093373612  0.2507370318700310  0.5279931937531188
  0.4669548870294307  0.0366759944691069  0.7446710854624072
  0.5279961637891120  0.9579070189230094  0.2507342802883628
  0.7446779727836059  0.4669609534805303  0.0366673756475464
  0.5951382001698207  0.7569850109813103  0.3992638369404489
  0.3112464671121344  0.0241068029582578  0.9442093756446397
  0.3992535543625593  0.5951459629337918  0.7569891173744594
  0.9442077523388974  0.3112505050343159  0.0241116395475487
  0.7569929379512175  0.3992586383286962  0.5951418367984047
  0.0241031350339824  0.9442144513462196  0.3112432861520560
  0.9709841423530676  0.0511410498500808  0.6836689312498549
  0.5955822124953443  0.4002948539953195  0.2374714031246299
  0.6836676865261992  0.9709800035190526  0.0511421397732974
  0.2374660038291196  0.5955784910707536  0.4002948664112864
  0.0511277548745781  0.6836601945553795  0.9709846702316938
  0.4002867110601542  0.2374761470170057  0.5955741223805120
  0.2620975447613532  0.3396991369366376  0.9777528783846563
  0.8804473657746570  0.6918902607226940  0.4987848797951457
  0.9777544911774214  0.2620858281796927  0.3397094415634569
  0.4987915871756954  0.8804480581690015  0.6918912955590102
  0.3397073354503917  0.9777372943813276  0.2620943673906595
  0.6918870902853698  0.4987788012296122  0.8804564605990279
  0.3042873238606276  0.4956902311098688  0.1138056113804993
  0.0168954994548116  0.7333463090016110  0.6552494974596499
  0.1138179727401436  0.3042940492532651  0.4956830394811362
  0.6552463480422688  0.0169121395817058  0.7333410125754583
  0.4956768312051878  0.1138067459669045  0.3042917683271966
  0.7333330305810719  0.6552624831397722  0.0168983067424975
 
  0.00000000E+00  0.00000000E+00  0.00000000E+00
  0.00000000E+00  0.00000000E+00  0.00000000E+00
  0.00000000E+00  0.00000000E+00  0.00000000E+00
  0.00000000E+00  0.00000000E+00  0.00000000E+00
  0.00000000E+00  0.00000000E+00  0.00000000E+00
  0.00000000E+00  0.00000000E+00  0.00000000E+00
  0.00000000E+00  0.00000000E+00  0.00000000E+00
  0.00000000E+00  0.00000000E+00  0.00000000E+00
  0.00000000E+00  0.00000000E+00  0.00000000E+00
  0.00000000E+00  0.00000000E+00  0.00000000E+00
  0.00000000E+00  0.00000000E+00  0.00000000E+00
  0.00000000E+00  0.00000000E+00  0.00000000E+00
  0.00000000E+00  0.00000000E+00  0.00000000E+00
  0.00000000E+00  0.00000000E+00  0.00000000E+00
  0.00000000E+00  0.00000000E+00  0.00000000E+00
  0.00000000E+00  0.00000000E+00  0.00000000E+00
  0.00000000E+00  0.00000000E+00  0.00000000E+00
  0.00000000E+00  0.00000000E+00  0.00000000E+00
  0.00000000E+00  0.00000000E+00  0.00000000E+00
  0.00000000E+00  0.00000000E+00  0.00000000E+00
  0.00000000E+00  0.00000000E+00  0.00000000E+00
  0.00000000E+00  0.00000000E+00  0.00000000E+00
  0.00000000E+00  0.00000000E+00  0.00000000E+00
  0.00000000E+00  0.00000000E+00  0.00000000E+00
  0.00000000E+00  0.00000000E+00  0.00000000E+00
  0.00000000E+00  0.00000000E+00  0.00000000E+00
  0.00000000E+00  0.00000000E+00  0.00000000E+00
  0.00000000E+00  0.00000000E+00  0.00000000E+00
  0.00000000E+00  0.00000000E+00  0.00000000E+00
  0.00000000E+00  0.00000000E+00  0.00000000E+00
  0.00000000E+00  0.00000000E+00  0.00000000E+00
  0.00000000E+00  0.00000000E+00  0.00000000E+00
  0.00000000E+00  0.00000000E+00  0.00000000E+00
  0.00000000E+00  0.00000000E+00  0.00000000E+00
  0.00000000E+00  0.00000000E+00  0.00000000E+00
