Ca2 Fe4 S6 O24                          
   1.00000000000000     
     7.6206250000000004    0.0099080000000000    4.3918920000000004
     2.5357229999999999    7.1079850000000002    4.3703979999999998
     0.0558190000000000    0.0009060000000000    8.7890090000000001
   Ca   Fe   S    O 
     2     4     6    24
Direct
  0.4404390188367650  0.5910613295016871  0.4894574785057667
  0.9805165865166796  0.0277496246025132  0.9856927007826349
  0.6527870740059958  0.6299463250467912  0.6698825435520968
  0.1541353732572593  0.1451977599494352  0.1474076730986796
  0.8388809358526690  0.8608602128407764  0.8395207182527367
  0.3445055955898513  0.3551095308165496  0.3506003678146550
  0.9466785566548176  0.2550040737753682  0.5441399996847767
  0.4459930988987938  0.0460560053548416  0.7560916179620126
  0.5452056169745794  0.9569150795882918  0.2466717788718243
  0.7474232550185400  0.4479490129415689  0.0487070648827138
  0.2400536837140611  0.5595650362728791  0.9569232709564478
  0.0386393279522838  0.7542492952545717  0.4444517692065025
  0.4106553110825890  0.5567664364864042  0.7846591358805002
  0.8918449334765791  0.2660014580644047  0.1045761804591803
  0.7739121689766745  0.4206311242187022  0.5393170562900875
  0.0631667135090060  0.9020145631018247  0.2591003665231984
  0.5514618203106924  0.8136518650717359  0.4318068415229185
  0.2548357413393021  0.0949769646112261  0.8973533047904276
  0.7304123807783857  0.9069456984863924  0.1042108099140222
  0.2144565248511726  0.5892737970834845  0.4342497581776306
  0.0955034716029542  0.7455942966246404  0.9099068484913341
  0.4460017586342812  0.1980025903289003  0.5747173879662351
  0.9041801691651594  0.1046291590555940  0.7288075947013416
  0.5776949157620809  0.4693594214531457  0.2144888587854682
  1.0069731702400366  0.1878087267751292  0.3948285929490846
  0.4833372768988641  0.8659346373053826  0.7508871156081915
  0.4006597540034014  0.9445705567036929  0.2172430384062209
  0.7136860340106460  0.4344696232696150  0.9078621941034734
  0.1812170317588768  0.4093972280611363  0.0006416848850344
  0.8833454404460032  0.7030629478534208  0.4914987617007059
  0.0932379035389974  0.2972732166697085  0.5343155420153339
  0.5812207890225348  0.0365495292169980  0.8131143447298758
  0.5043943184164281  0.1433819204827394  0.2393964788442879
  0.8129598628550685  0.6044267696198186  0.9701687459176302
  0.2783390797695303  0.5417851111430577  0.1090295390189382
  0.0184596229518818  0.8146836213155303  0.5835312114924929
 
             NaN             NaN             NaN
             NaN             NaN             NaN
             NaN             NaN             NaN
             NaN             NaN             NaN
             NaN             NaN             NaN
             NaN             NaN             NaN
             NaN             NaN             NaN
             NaN             NaN             NaN
             NaN             NaN             NaN
             NaN             NaN             NaN
             NaN             NaN             NaN
             NaN             NaN             NaN
             NaN             NaN             NaN
             NaN             NaN             NaN
             NaN             NaN             NaN
             NaN             NaN             NaN
             NaN             NaN             NaN
             NaN             NaN             NaN
             NaN             NaN             NaN
             NaN             NaN             NaN
             NaN             NaN             NaN
             NaN             NaN             NaN
             NaN             NaN             NaN
             NaN             NaN             NaN
             NaN             NaN             NaN
             NaN             NaN             NaN
             NaN             NaN             NaN
             NaN             NaN             NaN
             NaN             NaN             NaN
             NaN             NaN             NaN
             NaN             NaN             NaN
             NaN             NaN             NaN
             NaN             NaN             NaN
             NaN             NaN             NaN
             NaN             NaN             NaN
             NaN             NaN             NaN
