Ca2 Fe4 S6 O24                          
   1.00000000000000     
     7.6206250000000004    0.0099080000000000    4.3918920000000004
     2.5357229999999999    7.1079850000000002    4.3703979999999998
     0.0558190000000000    0.0009060000000000    8.7890090000000001
   Ca   Fe   S    O 
     2     4     6    24
Direct
  0.4297408199912022  0.5908857688418090  0.4970996621527268
  0.9806990650930250  1.0270796300203593 -0.0155724214024188
  0.6486189044771393  0.6360258502372913  0.6690768262843071
  0.1502379653168335  0.1448652275632883  0.1501841131242560
  0.8425378987567713  0.8584411683143234  0.8370050526351575
  0.3484892285049650  0.3536326965712636  0.3507817080529518
  0.9472501684242979  0.2537343941080649  0.5441466265640829
  0.4427632554738845  0.0508864332725721  0.7538110475356053
  0.5487875462883194  0.9538476419344922  0.2473143718193860
  0.7475194223068246  0.4491122763164193  0.0496504838335640
  0.2417480374733407  0.5570727800998411  0.9584961779028374
  0.0387788807856674  0.7546357045392617  0.4420229750566920
  0.4110630046108305  0.5569079403397179  0.7853210138417734
  0.8919545372834675  0.2651164437510263  0.1012581510231011
  0.7750067739404791  0.4190019020190629  0.5471879984127394
  0.0610577713824230  0.9034700110527062  0.2578864296793844
  0.5644964192413765  0.7977621408074291  0.4244422284095057
  0.2538293983193663  0.0914066145643803  0.9012396575688948
  0.7287071527228991  0.9136869306164976  0.0960528291241648
  0.2133120912966071  0.5905274902895696  0.4296252537416802
  0.0954186442586308  0.7419157511655041  0.9133445156988726
  0.4384002737916479  0.2179510693563904  0.5816325574075791
  0.9081898350515896  0.0992927263162426  0.7273925857152753
  0.5792182435357984  0.4695466657823555  0.2168152291478936
  0.9976437094543081  0.1928753528585704  0.3933651986874215
  0.4737044081753221  0.8856751985328090  0.7264042330546039
  0.3967465222377020  0.9521914057469238  0.2202876114243114
  0.7087000085643941  0.4429536693250384  0.9077985482671498
  0.1853769344941012  0.4055492205706554  1.0016842641560211
  0.8812560848087082  0.7045523896812389  0.4926242808428761
  0.0985692507106456  0.2904884842145005  0.5308561012500753
  0.5819558281725925  0.0238919155585300  0.8163380618605941
  0.5138122349598343  0.1318428132131462  0.2551047020858951
  0.8165693677573839  0.6022400947042439 -0.0261644360169058
  0.2816021662827373  0.5388961494828998  0.1100021253074554
  0.0232893277226913  0.8131577377338749  0.5808046985353390
 
             NaN             NaN             NaN
             NaN             NaN             NaN
             NaN             NaN             NaN
             NaN             NaN             NaN
             NaN             NaN             NaN
             NaN             NaN             NaN
             NaN             NaN             NaN
             NaN             NaN             NaN
             NaN             NaN             NaN
             NaN             NaN             NaN
             NaN             NaN             NaN
             NaN             NaN             NaN
             NaN             NaN             NaN
             NaN             NaN             NaN
             NaN             NaN             NaN
             NaN             NaN             NaN
             NaN             NaN             NaN
             NaN             NaN             NaN
             NaN             NaN             NaN
             NaN             NaN             NaN
             NaN             NaN             NaN
             NaN             NaN             NaN
             NaN             NaN             NaN
             NaN             NaN             NaN
             NaN             NaN             NaN
             NaN             NaN             NaN
             NaN             NaN             NaN
             NaN             NaN             NaN
             NaN             NaN             NaN
             NaN             NaN             NaN
             NaN             NaN             NaN
             NaN             NaN             NaN
             NaN             NaN             NaN
             NaN             NaN             NaN
             NaN             NaN             NaN
             NaN             NaN             NaN
