Cr12 P4
1.0
0.000000 0.000000 -4.567000
-4.572000 -4.572000 -2.283500
-4.572000 4.572000 -2.283500
Cr P
12 4
direct
0.128000 0.027000 0.181000 Cr0+
0.336000 0.973000 0.819000 Cr0+
0.691000 0.181000 0.973000 Cr0+
0.845000 0.819000 0.027000 Cr0+
0.965000 0.672000 0.390000 Cr0+
0.027000 0.328000 0.610000 Cr0+
0.645000 0.390000 0.328000 Cr0+
0.363000 0.610000 0.672000 Cr0+
0.540000 0.052000 0.390000 Cr0+
0.982000 0.948000 0.610000 Cr0+
0.070000 0.390000 0.948000 Cr0+
0.408000 0.610000 0.052000 Cr0+
0.439000 0.755000 0.337000 P0+
0.531000 0.245000 0.663000 P0+
0.224000 0.337000 0.245000 P0+
0.806000 0.663000 0.755000 P0+
