Ca1 Co4 P6 O24                          
   1.00000000000000     
     2.6438370000000000    7.0203810000000004    4.4755849999999997
     0.2687280000000000    0.2712080000000000    8.7257269999999991
     7.4316160000000000    0.2324340000000000    4.5233970000000001
   Ca   Co   P    O 
     1     4     6    24
Direct
  0.3152872333434651  0.7108555803435241  0.5197835405847526
  0.6489111955105735  0.6350935680624042  0.6454980344853314
  0.1322225198907900  0.1508510240133945  0.1378860472682067
  0.8473892783264341  0.8597378345836278  0.8576419886089629
  0.3565718280797013  0.3489688724246692  0.3655739148088801
  0.2519897993464104  0.5204913488834016  0.9663524590546663
  0.0160505663108114  0.7484112834234877  0.4637305122126640
  0.9703135942580204  0.2458928647914011  0.5233805808868741
  0.4567172721911529  0.0325134012759340  0.7520214932499895
  0.5432497177594353  0.9704515168003244  0.2458312805139260
  0.7412261995275836  0.4757573187805805  0.0454721782563390
  0.5940197735063959  0.7633243227878215  0.3985733100540828
  0.3008671071523114  0.0166696068786841  0.9580582086120148
  0.4134562190252425  0.5804967848309865  0.7701429721795170
  0.9350560561291474  0.3055755086214273  0.0296264154166217
  0.7761457558232432  0.3832086734256432  0.6164626762939651
  0.0201658494607506  0.9549339377459908  0.3289896259737999
  0.9936241267998543  0.0302005907999366  0.6503996495687528
  0.5837680953829174  0.4139810455690584  0.2372869356459834
  0.7011573214458288  0.9810718936984590  0.0428249186331232
  0.2239959237896038  0.6085101210370880  0.3908582747067711
  0.0641201655197375  0.6953486671788948  0.9481738889992904
  0.3937522020475726  0.2399022110579702  0.6074215181678501
  0.2520261578165341  0.3463686241781623  0.9653483714611965
  0.8676637167882325  0.7112676910287553  0.4637326307194037
  0.9862729575241493  0.2885387151252084  0.3215183963708056
  0.4830330128142590  0.8855741997088664  0.6895726916504343
  0.3480953458169698  0.9995200323124164  0.2564812674273229
  0.6941392937352879  0.5319508479676461  0.8712551901939741
  0.2938130109427106  0.4788276530204959  0.1336314565769017
 -0.0066947874779503  0.7130049842707501  0.6673190511701939
  0.1350655568321766  0.2771077627641790  0.5086207874824474
  0.6470485821964825 -0.0011644555957827  0.7537015356996261
  0.5268443665630946  0.1169454850555938  0.3013940176258074
  0.7453720997477760  0.6491781277722222  0.0413127490104305
 
             NaN             NaN             NaN
             NaN             NaN             NaN
             NaN             NaN             NaN
             NaN             NaN             NaN
             NaN             NaN             NaN
             NaN             NaN             NaN
             NaN             NaN             NaN
             NaN             NaN             NaN
             NaN             NaN             NaN
             NaN             NaN             NaN
             NaN             NaN             NaN
             NaN             NaN             NaN
             NaN             NaN             NaN
             NaN             NaN             NaN
             NaN             NaN             NaN
             NaN             NaN             NaN
             NaN             NaN             NaN
             NaN             NaN             NaN
             NaN             NaN             NaN
             NaN             NaN             NaN
             NaN             NaN             NaN
             NaN             NaN             NaN
             NaN             NaN             NaN
             NaN             NaN             NaN
             NaN             NaN             NaN
             NaN             NaN             NaN
             NaN             NaN             NaN
             NaN             NaN             NaN
             NaN             NaN             NaN
             NaN             NaN             NaN
             NaN             NaN             NaN
             NaN             NaN             NaN
             NaN             NaN             NaN
             NaN             NaN             NaN
             NaN             NaN             NaN
