Ca1 Co4 P6 O24
1.0
2.643837 7.020381 4.475585
0.268728 0.271208 8.725727
7.431616 0.232434 4.523397
Ca Co P O
1 4 6 24
direct
0.404149 0.641609 0.540607 Ca
0.647381 0.641518 0.643513 Co
0.137898 0.141331 0.139346 Co
0.853263 0.851946 0.853635 Co
0.355735 0.350104 0.351407 Co
0.247440 0.529673 0.959872 P
0.035960 0.744112 0.469011 P
0.956618 0.250271 0.526823 P
0.467580 0.033324 0.744570 P
0.532724 0.961712 0.244059 P
0.745408 0.467896 0.037957 P
0.600387 0.763419 0.395607 O
0.315153 0.023663 0.948714 O
0.397109 0.596665 0.759568 O
0.944899 0.307905 0.021247 O
0.764375 0.401780 0.595504 O
0.029499 0.943454 0.310805 O
0.964745 0.048458 0.683851 O
0.597110 0.400704 0.237877 O
0.682451 0.976274 0.039547 O
0.229033 0.591833 0.402014 O
0.050161 0.692959 0.966865 O
0.398184 0.234691 0.597087 O
0.253663 0.343593 0.979651 O
0.870904 0.705296 0.499581 O
0.971632 0.264763 0.337320 O
0.483509 0.880060 0.696978 O
0.335604 0.982404 0.269974 O
0.691356 0.505203 0.877498 O
0.296654 0.496259 0.121491 O
0.024712 0.730129 0.657080 O
0.124960 0.281005 0.500277 O
0.662448 0.005460 0.726683 O
0.506086 0.121225 0.291962 O
0.740273 0.651918 0.021525 O
