Ca1 V4 P6 O24                           
   1.00000000000000     
     2.5416460000000001    7.0203860000000002    4.4549529999999997
     0.1996700000000000    0.1349740000000000    8.7111730000000005
     7.4633789999999998    0.0990350000000000    4.4873479999999999
   Ca   V    P    O 
     1     4     6    24
Direct
  0.2548425388946266  0.8203931283283443  0.5751869737126625
  0.6505105737375869  0.6380738827106757  0.6411992675772811
  0.1353327677073398  0.1484342967240594  0.1384850106027643
  0.8399482175428276  0.8461555917404086  0.8625008570251566
  0.3636342534493089  0.3443005200462204  0.3604190853369231
  0.2540075394700783  0.5199875538526038  0.9621656111720194
  0.0293375027780587  0.7413157550554468  0.4664698336796676
  0.9688315299965762  0.2523205021614945  0.5180925802174202
  0.4493111666953047  0.0259985801830152  0.7520246859348979
  0.5502432743431293  0.9680497962899398  0.2403141106353587
  0.7465397168759008  0.4644455552869973  0.0426524751270713
  0.5821634143056961  0.7698015657453317  0.4100240154074640
  0.2915555252881752  0.0330675363943642  0.9428195753388094
  0.4244600259031184  0.5562644531871400  0.7751448572266372
  0.9265050286964945  0.2849186815205778  0.0433311802980895
  0.7922675260026980  0.4082589270545386  0.5887694748054495
  0.0563704058424531  0.9372439003842528  0.3191809699660145
  0.9612536699253681  0.0514923253812197  0.6670916547345902
  0.5738599569699904  0.4239045242754250  0.2185480633480090
  0.7114409295927192  0.9594027160102503  0.0510027128815236
  0.2129227753401834  0.5815969776302274  0.4120722090863200
  0.0792416907945956  0.7057579495269598  0.9220815819938549
  0.4193435373559298  0.2236459706988611  0.5926315090407808
  0.2303585262517494  0.3487893259762620  0.9782577878540081
  0.8527487199088768  0.7389433445794620  0.4758641233832372
  0.9800856434110916  0.2754875878397492  0.3271605697363467
  0.4634407101237037  0.8747176838304068  0.7018479520559221
  0.3551560311022534  1.0050690087363514  0.2434970563341296
  0.7038054819195022  0.5321106814199004  0.8603798518278702
  0.2847096811608053  0.4836676562770798  0.1334803448486493
  0.0075913434302941  0.7229176986564718  0.6615773919512407
  0.1541788590306060  0.2569116860232076  0.4972403552260976
  0.6446027892450582  0.9675407901574233  0.7714416737961584
  0.5345311014558698  0.1186840855839197  0.2895331804913818
  0.7658105727901058  0.6289245734131980  0.0414307473345842
 
             NaN             NaN             NaN
             NaN             NaN             NaN
             NaN             NaN             NaN
             NaN             NaN             NaN
             NaN             NaN             NaN
             NaN             NaN             NaN
             NaN             NaN             NaN
             NaN             NaN             NaN
             NaN             NaN             NaN
             NaN             NaN             NaN
             NaN             NaN             NaN
             NaN             NaN             NaN
             NaN             NaN             NaN
             NaN             NaN             NaN
             NaN             NaN             NaN
             NaN             NaN             NaN
             NaN             NaN             NaN
             NaN             NaN             NaN
             NaN             NaN             NaN
             NaN             NaN             NaN
             NaN             NaN             NaN
             NaN             NaN             NaN
             NaN             NaN             NaN
             NaN             NaN             NaN
             NaN             NaN             NaN
             NaN             NaN             NaN
             NaN             NaN             NaN
             NaN             NaN             NaN
             NaN             NaN             NaN
             NaN             NaN             NaN
             NaN             NaN             NaN
             NaN             NaN             NaN
             NaN             NaN             NaN
             NaN             NaN             NaN
             NaN             NaN             NaN
