Ca1 Co4 P6 O24                          
   1.00000000000000     
     2.5921620000000001    7.0832179999999996    4.4109680000000004
     0.1846780000000000    0.2300690000000000    8.7445459999999997
     7.4408820000000002    0.1829030000000000    4.4590290000000001
   Ca   Co   P    O 
     1     4     6    24
Direct
  0.2516921010886834  0.8670570891387224  0.6036066417327031
  0.6522905951315550  0.6378510212043057  0.6397555692635362
  0.1339413396238625  0.1490734646364300  0.1309503153548009
  0.8440068772248632  0.8431548738243699  0.8631910705753739
  0.3658642726446550  0.3449873214606270  0.3572169922250897
  0.2554109375799130  0.5209181302451088  0.9574516341744858
  0.0322281130478966  0.7465206083323928  0.4676765155892817
  0.9662523536183021  0.2499159225053784  0.5174195113933420
  0.4560617249078021  0.0211517342474930  0.7476242891674804
  0.5453208738429297  0.9715586729803473  0.2391559849941379
  0.7435397859005761  0.4600585714588730  0.0458376819399028
  0.5848600783586366  0.7766549182237763  0.4037233806629577
  0.3012742027037709  0.0327129325767135  0.9436163385889388
  0.4251730766667881  0.5574955867538200  0.7670025377556382
  0.9183354557302382  0.2765130988269884  0.0457355159131988
  0.8100330668900705  0.4252470804173845  0.5692038148176345
  0.0649807909758230  0.9276273893957814  0.2982668836810324
  0.9281487040332986  0.0661767158308689  0.6813989698374671
  0.5740156221324841  0.4355923686155195  0.2330778586460308
  0.7011883822545307  0.9622628657340516  0.0450899321920136
  0.1876294454754729  0.5673988439760316  0.4197317613690966
  0.0847369216508343  0.7124952343315156  0.9333195843393355
  0.4150991676924244  0.2203684146843651  0.5924219916959393
  0.2179181722980559  0.3609865098135049  0.9727772873769994
  0.8375273672111171  0.7540867132046138  0.5072376083536659
  0.9711502572776127  0.2651398857432301  0.3324662779684180
  0.4471134738192123  0.8779923115931052  0.7058106929457223
  0.3471568968021606  1.0117574277740891  0.2512709087400237
  0.6883339818640140  0.5247704068814192  0.8753027922838160
  0.2995536600069889  0.4668493722486755  0.1296090530045759
  0.0433461429952508  0.7383546099309191  0.6418666346594148
  0.1621014759607869  0.2203201386620546  0.5018599803985230
  0.6515220686158442  0.9563503702750418  0.7565965417154732
  0.5406586850164075  0.1230666430735934  0.2810816163363895
  0.7908600864875467  0.6184834487916679  0.0228575782041677
 
             NaN             NaN             NaN
             NaN             NaN             NaN
             NaN             NaN             NaN
             NaN             NaN             NaN
             NaN             NaN             NaN
             NaN             NaN             NaN
             NaN             NaN             NaN
             NaN             NaN             NaN
             NaN             NaN             NaN
             NaN             NaN             NaN
             NaN             NaN             NaN
             NaN             NaN             NaN
             NaN             NaN             NaN
             NaN             NaN             NaN
             NaN             NaN             NaN
             NaN             NaN             NaN
             NaN             NaN             NaN
             NaN             NaN             NaN
             NaN             NaN             NaN
             NaN             NaN             NaN
             NaN             NaN             NaN
             NaN             NaN             NaN
             NaN             NaN             NaN
             NaN             NaN             NaN
             NaN             NaN             NaN
             NaN             NaN             NaN
             NaN             NaN             NaN
             NaN             NaN             NaN
             NaN             NaN             NaN
             NaN             NaN             NaN
             NaN             NaN             NaN
             NaN             NaN             NaN
             NaN             NaN             NaN
             NaN             NaN             NaN
             NaN             NaN             NaN
