Ca1 Co4 P6 O24
1.0
2.592162 7.083218 4.410968
0.184678 0.230069 8.744546
7.440882 0.182903 4.459029
Ca Co P O
1 4 6 24
direct
0.281134 0.832368 0.597775 Ca
0.650225 0.636622 0.641513 Co
0.135852 0.144330 0.138186 Co
0.850599 0.847761 0.851813 Co
0.363756 0.350364 0.352972 Co
0.242337 0.534017 0.964131 P
0.034536 0.745262 0.470480 P
0.954924 0.248749 0.526217 P
0.467358 0.026144 0.745503 P
0.539844 0.968516 0.234832 P
0.747525 0.467159 0.037279 P
0.585653 0.781432 0.403865 O
0.311545 0.041385 0.939727 O
0.407532 0.575571 0.771977 O
0.930804 0.291613 0.034798 O
0.783073 0.418949 0.574212 O
0.056526 0.926410 0.296656 O
0.937484 0.061506 0.696790 O
0.586235 0.424167 0.228919 O
0.689865 0.964636 0.039972 O
0.208175 0.572491 0.427228 O
0.064382 0.717233 0.943887 O
0.417095 0.220629 0.586316 O
0.220889 0.359236 0.992379 O
0.853956 0.728081 0.507931 O
0.964658 0.247318 0.346596 O
0.461545 0.876203 0.710480 O
0.338244 0.997087 0.263075 O
0.693408 0.513152 0.872578 O
0.284354 0.497089 0.132157 O
0.032777 0.748539 0.646872 O
0.142563 0.247194 0.498791 O
0.663852 -0.018690 0.735605 O
0.520325 0.133428 0.270332 O
0.771591 0.636951 0.017145 O
