Cr2 P4                                  
   1.00000000000000     
     0.0002990885587910   -2.9897499457323389    0.0005008522171243
    -3.5403205291114115   -1.4948531207622080    2.0020487447516477
    -3.5368007520331717   -1.4936798946988983   -5.0237508431793296
   Cr   P 
     2     4
Direct
  0.1584497672540933  0.3887131950047459  0.2946011536895100
  0.8415502084747516  0.6112808559035485  0.7054040652381754
  0.4002719939200945  0.7972655130218619  0.4026260241256943
  0.5997243270885141  0.2027484605530246  0.5973722911412540
  0.8572027980453814  0.2571861492693245  0.0283407605688831
  0.1428009052171651  0.7428058262474945  0.9716557052364830
 
  0.00000000E+00  0.00000000E+00  0.00000000E+00
  0.00000000E+00  0.00000000E+00  0.00000000E+00
  0.00000000E+00  0.00000000E+00  0.00000000E+00
  0.00000000E+00  0.00000000E+00  0.00000000E+00
  0.00000000E+00  0.00000000E+00  0.00000000E+00
  0.00000000E+00  0.00000000E+00  0.00000000E+00
