Ca4 Mn4 P6 O24
1.0
2.653430 7.814995 4.513174
0.023342 0.307002 8.640985
7.537335 0.308589 4.207656
Ca Mn P O
4 4 6 24
direct
0.597795 0.406938 0.517034 Ca
0.897364 0.978960 0.089599 Ca
0.367478 0.732698 0.111798 Ca
0.129895 0.383601 0.764174 Ca
0.638269 0.666941 0.638391 Mn
0.162412 0.134177 0.193451 Mn
0.859106 0.857195 0.828933 Mn
0.332102 0.304272 0.359490 Mn
0.247241 0.543600 0.952359 P
0.027693 0.773059 0.439921 P
0.942379 0.245018 0.594943 P
0.468787 0.056074 0.722204 P
0.553385 0.901317 0.251246 P
0.748453 0.488635 0.007067 P
0.593352 0.723242 0.418560 O
0.305007 0.061284 0.904347 O
0.399176 0.546388 0.762278 O
0.873941 0.290696 0.997436 O
0.772663 0.416817 0.630717 O
0.075693 0.923711 0.243186 O
0.903266 0.077467 0.773169 O
0.622938 0.498771 0.204988 O
0.722811 0.865955 0.078925 O
0.191460 0.591179 0.435108 O
0.094407 0.733200 0.948284 O
0.420778 0.252189 0.570966 O
0.184222 0.385050 0.002353 O
0.865825 0.754798 0.462534 O
0.961331 0.226568 0.418427 O
0.489737 0.905083 0.660637 O
0.394729 0.918440 0.229485 O
0.625039 0.588449 0.892320 O
0.310786 0.497694 0.109159 O
0.006446 0.836192 0.589955 O
0.100763 0.267933 0.576963 O
0.630439 0.033563 0.740742 O
0.534120 0.078014 0.269384 O
0.871467 0.603756 0.906475 O
