Ca1 Fe4 S6 O24                          
   1.00000000000000     
     7.5877460000000001    0.1642460000000000    4.5226600000000001
     2.6407389999999999    7.1103079999999999    4.5476140000000003
     0.2324860000000000    0.1927630000000000    8.8358580000000000
   Ca   Fe   S    O 
     1     4     6    24
Direct
  0.2575843311096018  0.8094950688387221  0.5655628007275331
  0.6598277530519975  0.6361732685121420  0.6454069783608813
  0.1407981460335026  0.1546821632347775  0.1312594618993130
  0.8327514978600313  0.8419850301658510  0.8583721351871784
  0.3597825513853221  0.3447330077090804  0.3600612993072797
  0.9642000690833109  0.2509888588781407  0.5204722241472270
  0.4464766515642950  0.0278009646171563  0.7524697618075553
  0.5512658182788618  0.9685698714948350  0.2391157968813152
  0.7437565648340205  0.4553412568634690  0.0549620191621358
  0.2556839194416671  0.5288456688287620  0.9519195910960969
  0.0397486600638251  0.7394966498613383  0.4602875507913864
  0.4200331857150103  0.5674714128091973  0.7724169404583254
  0.9225113083617549  0.2913415941633677  0.0433157579177515
  0.7885023552152287  0.3837331844735164  0.6057096008743441
  0.0428583038257767  0.9343388174247791  0.3426605533350334
  0.5853693484809775  0.7778798369530776  0.3936803466109401
  0.3099886770024195  0.0111618590330180  0.9484626866043340
  0.6957396557316464  0.9650145890512460  0.0538521182215216
  0.2271122838247983  0.6051291227995376  0.3901330169016881
  0.0908188312103148  0.7065848243848377  0.9167857413492067
  0.3844902317703311  0.2222244264990606  0.6200778692857988
  0.9692940808543389  0.0508287245450033  0.6481980630290004
  0.5951471954037565  0.4024771181620845  0.2378246760274556
  0.9766817732179172  0.2864639184846896  0.3333853799687052
  0.4605977497110734  0.8883732313757943  0.6976853766026571
  0.3591127209875378  0.0123290439339483  0.2464964192313543
  0.6888387854451624  0.5159365031755923  0.8963029820175485
  0.2358572715673814  0.3707937035080364  0.9606935467762984
  0.8869894207070652  0.7166900103641760  0.4634316394656337
  0.1315057789849749  0.2633767838796445  0.5057459442505631
  0.6360002435873747  0.9861088716994965  0.7425106700097515
  0.5425465324664732  0.1088216971437072  0.2839359464718027
  0.7656002300070626  0.6136250370239393  0.0467357976255282
  0.2851502806498252  0.4901886061865660  0.1165401380622210
  0.0137499599912080  0.7035065943997775  0.6566218031825996
 
             NaN             NaN             NaN
             NaN             NaN             NaN
             NaN             NaN             NaN
             NaN             NaN             NaN
             NaN             NaN             NaN
             NaN             NaN             NaN
             NaN             NaN             NaN
             NaN             NaN             NaN
             NaN             NaN             NaN
             NaN             NaN             NaN
             NaN             NaN             NaN
             NaN             NaN             NaN
             NaN             NaN             NaN
             NaN             NaN             NaN
             NaN             NaN             NaN
             NaN             NaN             NaN
             NaN             NaN             NaN
             NaN             NaN             NaN
             NaN             NaN             NaN
             NaN             NaN             NaN
             NaN             NaN             NaN
             NaN             NaN             NaN
             NaN             NaN             NaN
             NaN             NaN             NaN
             NaN             NaN             NaN
             NaN             NaN             NaN
             NaN             NaN             NaN
             NaN             NaN             NaN
             NaN             NaN             NaN
             NaN             NaN             NaN
             NaN             NaN             NaN
             NaN             NaN             NaN
             NaN             NaN             NaN
             NaN             NaN             NaN
             NaN             NaN             NaN
