Ca2 Co4 S6 O24                          
   1.00000000000000     
     7.7022800000000000    0.0585910000000000    4.4274120000000003
     2.7568570000000001    6.9676229999999997    4.5928680000000002
     0.3219610000000000   -0.0405300000000000    8.8653969999999997
   Ca   Co   S    O 
     2     4     6    24
Direct
  0.2588321308557690  0.8383574734789698  0.5761984159951522
  0.9721042930837447  0.0134734266131327  0.0068494912998000
  0.6548627208649213  0.6381155441344109  0.6552364197593470
  0.1402213011126097  0.1518253056227165  0.1398801435416809
  0.8329740396588265  0.8491425896780298  0.8458387296493303
  0.3684757645773282  0.3483419887560069  0.3518090196774111
  0.9756857594945758  0.2376093897047168  0.5350866077917210
  0.4323568390263618  0.0374370744445924  0.7520925729832804
  0.5594218558151210  0.9582805880164589  0.2385927621798512
  0.7445282417642526  0.4507070948927236  0.0478410321601854
  0.2550089776286348  0.5389899386885850  0.9579545257340789
  0.0348255211342033  0.7515815181852175  0.4454604848624635
  0.4226694094248773  0.5466254609535188  0.7807193595751339
  0.8814781792409215  0.2531965384458653  0.1116440686358038
  0.8354812201317230  0.4241661417496057  0.5376568846197574
  0.0991273554446128  0.8885123775743046  0.2539483096413469
  0.5724329331406205  0.7888573074878683  0.4127764198830924
  0.2380083270555187  0.0998224043513933  0.8904177150332051
  0.7317310416860523  0.9095404597364237  0.0798026078233847
  0.1803326915663523  0.5617549574952272  0.4689607356973390
  0.1027079885019677  0.7337285949120139  0.9064727651040368
  0.4590740980549329  0.1973393732384353  0.5761052901284418
  0.9259086964180220  0.0843054852989263  0.7247434462824430
  0.5642729253329148  0.4796894708909810  0.2020757642571823
  0.9893371144868811  0.1875359488394280  0.3944787190873125
  0.4408636300731034  0.8797160761744208  0.7239933844063916
  0.3845257902607921 -0.0036640300332665  0.2234237603833674
  0.7270566830868397  0.4578199234429486  0.8873291412196268
  0.1984268084471436  0.3910819864905058  0.9995033775669266
  0.8550637926652569  0.7607771613879792  0.4704346586158574
  0.1673141728615747  0.2113257638714255  0.5061002840567108
  0.5709813061281727  0.9675017471618788  0.8351938970739253
  0.5569233279532116  0.1220467420829713  0.2452034888225265
  0.8255022204688380  0.5878101095212559  0.9899622158842604
  0.2828708826114081  0.5225153219731407  0.1133118389901853
  0.0053251698398357  0.8154749154011105  0.5880881652701653
 
             NaN             NaN             NaN
             NaN             NaN             NaN
             NaN             NaN             NaN
             NaN             NaN             NaN
             NaN             NaN             NaN
             NaN             NaN             NaN
             NaN             NaN             NaN
             NaN             NaN             NaN
             NaN             NaN             NaN
             NaN             NaN             NaN
             NaN             NaN             NaN
             NaN             NaN             NaN
             NaN             NaN             NaN
             NaN             NaN             NaN
             NaN             NaN             NaN
             NaN             NaN             NaN
             NaN             NaN             NaN
             NaN             NaN             NaN
             NaN             NaN             NaN
             NaN             NaN             NaN
             NaN             NaN             NaN
             NaN             NaN             NaN
             NaN             NaN             NaN
             NaN             NaN             NaN
             NaN             NaN             NaN
             NaN             NaN             NaN
             NaN             NaN             NaN
             NaN             NaN             NaN
             NaN             NaN             NaN
             NaN             NaN             NaN
             NaN             NaN             NaN
             NaN             NaN             NaN
             NaN             NaN             NaN
             NaN             NaN             NaN
             NaN             NaN             NaN
             NaN             NaN             NaN
