Ca1 Fe4 P6 O24
1.0
2.688255 7.043902 4.622605
0.301158 0.248381 8.828930
7.432679 0.281642 4.590382
Ca Fe P O
1 4 6 24
direct
0.252308 0.880156 0.629887 Ca
0.660860 0.635436 0.639965 Fe
0.145053 0.151125 0.146494 Fe
0.837230 0.839010 0.849408 Fe
0.359934 0.354837 0.356158 Fe
0.239360 0.523120 0.975273 P
0.035980 0.758086 0.456734 P
0.955448 0.251916 0.520810 P
0.450175 0.025034 0.761852 P
0.535169 0.977059 0.230420 P
0.763867 0.449048 0.037828 P
0.575480 0.790480 0.402850 O
0.315528 0.013902 0.975618 O
0.410498 0.570362 0.789205 O
0.970443 0.293934 0.019601 O
0.775451 0.416012 0.572739 O
0.027137 0.967905 0.316880 O
0.937024 0.051294 0.669272 O
0.608196 0.394580 0.233556 O
0.680532 0.967828 0.026484 O
0.228497 0.605339 0.393661 O
0.052651 0.705290 0.942520 O
0.391737 0.222386 0.611343 O
0.256904 0.335858 0.979599 O
0.863776 0.739894 0.481113 O
0.979945 0.285891 0.313842 O
0.453564 0.868510 0.732434 O
0.324697 1.001218 0.273717 O
0.732821 0.489762 0.864358 O
0.242579 0.500408 0.156449 O
0.022858 0.725747 0.660109 O
0.139467 0.232367 0.518096 O
0.662402 -0.023329 0.730065 O
0.522682 0.145629 0.245421 O
0.751213 0.640728 0.025415 O
