Fe2 P2 O7
1.0
5.458796 0.000000 -0.799271
-1.384542 5.006187 -0.797595
0.000000 0.000000 4.488000
Fe P O
2 2 7
direct
0.299800 0.755300 0.488600 Fe2+
0.700100 0.396000 0.454200 Fe2+
0.784700 0.863200 0.061000 P5+
0.206000 0.287400 0.879800 P5+
0.629000 0.694000 0.757000 O2-
0.624000 0.004000 0.247000 O2-
0.925000 0.703000 0.251000 O2-
0.036000 0.028000 0.956000 O2-
0.084000 0.450000 0.696000 O2-
0.344000 0.127000 0.703000 O2-
0.368000 0.449000 0.185000 O2-
