Ca4 V4 P6 O24
1.0
2.545367 7.254436 4.317165
-0.003803 0.007429 8.801722
7.671890 0.007758 4.312688
Ca V P O
4 4 6 24
direct
0.245240 0.885319 0.591045 Ca
0.964795 0.005450 0.021863 Ca
0.409026 0.741685 0.111851 Ca
0.152421 0.404950 0.739335 Ca
0.645746 0.629815 0.631553 V
0.141456 0.150372 0.150544 V
0.842312 0.856868 0.856853 V
0.355291 0.349027 0.352541 V
0.245609 0.556850 0.951997 P
0.038325 0.751505 0.449049 P
0.960472 0.254563 0.555746 P
0.448064 0.031630 0.742184 P
0.537765 0.948794 0.248767 P
0.747939 0.455469 0.030946 P
0.561348 0.770331 0.413204 O
0.259614 0.061012 0.908181 O
0.397199 0.578595 0.761600 O
0.924965 0.285618 0.033102 O
0.779120 0.409621 0.561051 O
0.067473 0.911670 0.265819 O
0.939401 0.084704 0.736071 O
0.587039 0.419843 0.207657 O
0.713914 0.946591 0.084642 O
0.226650 0.591641 0.418845 O
0.085827 0.745293 0.923009 O
0.430478 0.216906 0.588624 O
0.188809 0.399826 0.990776 O
0.875852 0.708090 0.488951 O
0.041268 0.178968 0.399720 O
0.459871 0.874552 0.701042 O
0.381229 0.955700 0.209638 O
0.705314 0.500137 0.862329 O
0.295569 0.534085 0.106334 O
0.026138 0.778995 0.615918 O
0.109524 0.304072 0.550556 O
0.599775 0.968671 0.813785 O
0.465673 0.110415 0.312273 O
0.773603 0.622573 0.014598 O
