Ca2 Co6 P8 O28                          
   1.00000000000000     
     6.8512000849746739   -0.0000015907418047   -2.7348312748926951
    -0.0000052563634064    7.5984625752597195    0.0000025928137955
     0.0153395877204949    0.0000013762134065    9.4119177522909574
   Ca   Co   P    O 
     2     6     8    28
Direct
  0.4999925522391209  0.5000317655201982  0.5000207997550845
  0.4999931271160492  0.9999688335441590  0.0000206978584458
  0.1879444406137338  0.8737572761267174  0.5272607440467638
  0.8120622524527974  0.3737266726819897  0.9728038324924029
  0.8120620446870532  0.1262739725114912  0.4728035896676488
  0.1879443919710511  0.6262426494733546  0.0272605197424340
  0.0000224839354956  0.5000050649404670  0.4999876601802740
  0.0000231505931723  0.9999949969217781  0.9999880356924962
  0.8787843292388260  0.7954984788814130  0.6912853409762434
  0.1212124408010240  0.2955097918403524  0.8087207210954048
  0.1212119688713429  0.2044893893878879  0.3087182603097816
  0.8787839122660728  0.7045032930816717  0.1912817682375305
  0.5967435719180543  0.0670737548498792  0.7035563124636184
  0.4032536440049128  0.5670371561383973  0.7964386836388400
  0.4032528540201952  0.9329649673603910  0.2964368332088654
  0.5967411092654444  0.4329265677693570  0.2035532581893591
  0.3922190236964482  0.0263626308394578  0.6935668890871085
  0.6077513613105054  0.5263158200133304  0.8063754018418194
  0.6077488074660380  0.9736857176345168  0.3063746486047805
  0.3922176762325620  0.4736377492899351  0.1935661682879299
  0.0111225197549061  0.2861648129680816  0.6374492698206495
  0.9889202264731836  0.7862090686069862  0.8625509405448781
  0.9889239568441042  0.7137919413717384  0.3625520682998626
  0.0111230550852568  0.2138351605421462  0.1374504902200329
  0.9706449024875141  0.9214285863857583  0.6124087525182489
  0.0293344477101201  0.4214703552066794  0.8875363483616070
  0.0293360827937050  0.0785280124124981  0.3875391063010412
  0.9706452385448543  0.5785712894556667  0.1124092363046287
  0.6743780557999912  0.8796175044342220  0.6746528578259756
  0.3256423548476306  0.3795886634488710  0.8253631481862200
  0.3256422745382466  0.1204114334076110  0.3253630613529097
  0.6743782938482994  0.6203831122582315  0.1746532933189613
  0.6201727479692991  0.1952486816290033  0.5892212040891494
  0.3798734535334063  0.6952097731237004  0.9107913918374635
  0.3798734660505403  0.8047900324195680  0.4107914975636078
  0.6201720467913958  0.3047517195950888  0.0892204449162932
  0.2777694077110411  0.6184128003286986  0.6307877775002453
  0.7221867518463085  0.1184348187646833  0.8692079501471426
  0.7221850458142072  0.3815592355928175  0.3692078467929960
  0.2777715376137095  0.8815888883552532  0.1307887111499966
  0.8289045400506723  0.6220597018695457  0.6070881271200292
  0.1710656030295397  0.1220719945441786  0.8929293059562937
  0.1710643331241073  0.3779258309574942  0.3929288647310116
  0.8289045150380474  0.8779400335147471  0.1070881397639099
 
  0.00000000E+00  0.00000000E+00  0.00000000E+00
  0.00000000E+00  0.00000000E+00  0.00000000E+00
  0.00000000E+00  0.00000000E+00  0.00000000E+00
  0.00000000E+00  0.00000000E+00  0.00000000E+00
  0.00000000E+00  0.00000000E+00  0.00000000E+00
  0.00000000E+00  0.00000000E+00  0.00000000E+00
  0.00000000E+00  0.00000000E+00  0.00000000E+00
  0.00000000E+00  0.00000000E+00  0.00000000E+00
  0.00000000E+00  0.00000000E+00  0.00000000E+00
  0.00000000E+00  0.00000000E+00  0.00000000E+00
  0.00000000E+00  0.00000000E+00  0.00000000E+00
  0.00000000E+00  0.00000000E+00  0.00000000E+00
  0.00000000E+00  0.00000000E+00  0.00000000E+00
  0.00000000E+00  0.00000000E+00  0.00000000E+00
  0.00000000E+00  0.00000000E+00  0.00000000E+00
  0.00000000E+00  0.00000000E+00  0.00000000E+00
  0.00000000E+00  0.00000000E+00  0.00000000E+00
  0.00000000E+00  0.00000000E+00  0.00000000E+00
  0.00000000E+00  0.00000000E+00  0.00000000E+00
  0.00000000E+00  0.00000000E+00  0.00000000E+00
  0.00000000E+00  0.00000000E+00  0.00000000E+00
  0.00000000E+00  0.00000000E+00  0.00000000E+00
  0.00000000E+00  0.00000000E+00  0.00000000E+00
  0.00000000E+00  0.00000000E+00  0.00000000E+00
  0.00000000E+00  0.00000000E+00  0.00000000E+00
  0.00000000E+00  0.00000000E+00  0.00000000E+00
  0.00000000E+00  0.00000000E+00  0.00000000E+00
  0.00000000E+00  0.00000000E+00  0.00000000E+00
  0.00000000E+00  0.00000000E+00  0.00000000E+00
  0.00000000E+00  0.00000000E+00  0.00000000E+00
  0.00000000E+00  0.00000000E+00  0.00000000E+00
  0.00000000E+00  0.00000000E+00  0.00000000E+00
  0.00000000E+00  0.00000000E+00  0.00000000E+00
  0.00000000E+00  0.00000000E+00  0.00000000E+00
  0.00000000E+00  0.00000000E+00  0.00000000E+00
  0.00000000E+00  0.00000000E+00  0.00000000E+00
  0.00000000E+00  0.00000000E+00  0.00000000E+00
  0.00000000E+00  0.00000000E+00  0.00000000E+00
  0.00000000E+00  0.00000000E+00  0.00000000E+00
  0.00000000E+00  0.00000000E+00  0.00000000E+00
  0.00000000E+00  0.00000000E+00  0.00000000E+00
  0.00000000E+00  0.00000000E+00  0.00000000E+00
  0.00000000E+00  0.00000000E+00  0.00000000E+00
  0.00000000E+00  0.00000000E+00  0.00000000E+00
