Ca1 Ni4 S6 O24
1.0
7.707919 0.264733 4.039572
2.750107 7.043823 4.301682
0.650697 0.193885 8.691835
Ca Ni S O
1 4 6 24
direct
0.281057 0.828330 0.588943 Ca
0.652079 0.648960 0.644619 Ni
0.135291 0.147681 0.143271 Ni
0.847819 0.841351 0.851249 Ni
0.358710 0.348171 0.350544 Ni
0.957875 0.249905 0.528914 S
0.445717 0.037072 0.748969 S
0.549436 0.965300 0.237297 S
0.745149 0.452377 0.049317 S
0.250106 0.534049 0.955416 S
0.036873 0.749308 0.456771 S
0.411663 0.567345 0.770690 O
0.903864 0.268610 0.072118 O
0.816533 0.428372 0.552561 O
0.095466 0.895392 0.279211 O
0.581065 0.781911 0.402968 O
0.280491 1.064238 0.918962 O
0.702023 0.942652 0.061740 O
0.168181 0.560532 0.453221 O
0.082747 0.714643 0.930545 O
0.424512 0.220067 0.587164 O
0.924663 0.082709 0.703118 O
0.577947 0.438765 0.226421 O
0.958194 0.234205 0.369680 O
0.448182 0.888303 0.712000 O
0.359505 1.000149 0.244980 O
0.700386 0.491648 0.889786 O
0.216780 0.374875 0.981422 O
0.844357 0.775005 0.495095 O
0.151073 0.229119 0.494758 O
0.622304 -0.021157 0.773391 O
0.541467 0.119787 0.266013 O
0.796058 0.602108 0.017783 O
0.289213 0.503933 0.113099 O
0.040391 0.767513 0.616081 O
