Ca1 Fe4 S6 O24                          
   1.00000000000000     
     7.5503229999999997    0.2386510000000000    4.6262330000000000
     2.7152550000000000    7.0389980000000003    4.6231030000000004
     0.3555070000000000    0.2471140000000000    8.8518380000000008
   Ca   Fe   S    O 
     1     4     6    24
Direct
  0.4471037457141742  0.5458225793272604  0.5065496705522526
  0.6498586430674137  0.6455982256306844  0.6527012073290810
  0.1465990440094578  0.1507413248148315  0.1440758684525106
  0.8443988113687723  0.8553911844972194  0.8473464018859400
  0.3429863637284591  0.3504085374705188  0.3562200480475597
  0.9558145681483496  0.2511886989128004  0.5346783437446380
  0.4549188077160177  0.0540065867668669  0.7467327532151014
  0.5368257910627804  0.9528527085938004  0.2517997266861913
  0.7363654892910134  0.4690937586883456  0.0495012680094833
  0.2471831628086055  0.5354316138456631  0.9572242492247696
  0.0335212615514345  0.7564565741985713  0.4521510531632345
  0.3841944921018852  0.6177925272673378  0.7636723706950007
  0.9354921450973247  0.3348116147673486  0.0267239086237048
  0.7563714938841491  0.3835850479399531  0.6088736681653691
  0.0039633030950318  0.9588258126756685  0.3238012469210816
  0.6059672832443953  0.7568881852997482  0.3939502879752634
  0.3090315231134469  0.0275983866116311  0.9434944094538062
  0.6834493266283836  0.9699707856266129  0.0578285758255609
  0.2342308177005161  0.6289736091245913  0.3695444413607182
  0.0497748800367434  0.6704475501637774  0.9706298783381314
  0.3779072245077282  0.2543023827992550  0.6132985260298165
  0.9776484301061066  0.0483706207776564  0.6628050606494936
  0.6012879066623364  0.3957393883252228  0.2485576135987887
  0.9888348864578174  0.2817316517932348  0.3390770711049774
  0.4971551880178079  0.9093751080599962  0.6841216087720401
  0.3568103670889663  0.9599722886184823  0.2685343511852002
  0.6833346484074579  0.4909835926290767  0.9069703636905176
  0.2817555216248858  0.3498500502027563  0.9614299769357959
  0.8955047138996077  0.6977420949736289  0.4754057568749781
  0.0964023680988047  0.2964914842857150  0.5265959145366238
  0.6319294632204312  0.0430510203122626  0.7363485691148316
  0.4993622412891774  0.1029607535953595  0.3036227987809431
  0.7104999991621850  0.6595025903112192  0.0265437916472120
  0.2881113756776550  0.5063817867220322  0.1106933724246598
  0.0199999877725319  0.7229239274746163  0.6422454121583109
 
             NaN             NaN             NaN
             NaN             NaN             NaN
             NaN             NaN             NaN
             NaN             NaN             NaN
             NaN             NaN             NaN
             NaN             NaN             NaN
             NaN             NaN             NaN
             NaN             NaN             NaN
             NaN             NaN             NaN
             NaN             NaN             NaN
             NaN             NaN             NaN
             NaN             NaN             NaN
             NaN             NaN             NaN
             NaN             NaN             NaN
             NaN             NaN             NaN
             NaN             NaN             NaN
             NaN             NaN             NaN
             NaN             NaN             NaN
             NaN             NaN             NaN
             NaN             NaN             NaN
             NaN             NaN             NaN
             NaN             NaN             NaN
             NaN             NaN             NaN
             NaN             NaN             NaN
             NaN             NaN             NaN
             NaN             NaN             NaN
             NaN             NaN             NaN
             NaN             NaN             NaN
             NaN             NaN             NaN
             NaN             NaN             NaN
             NaN             NaN             NaN
             NaN             NaN             NaN
             NaN             NaN             NaN
             NaN             NaN             NaN
             NaN             NaN             NaN
