Ca1 Fe4 S6 O24                          
   1.00000000000000     
     7.5503229999999997    0.2386510000000000    4.6262330000000000
     2.7152550000000000    7.0389980000000003    4.6231030000000004
     0.3555070000000000    0.2471140000000000    8.8518380000000008
   Ca   Fe   S    O 
     1     4     6    24
Direct
  0.4471286392978642  0.5458018589615229  0.5065548933330336
  0.6498419959983871  0.6456169033467892  0.6526062022390515
  0.1465965250538298  0.1506592162613501  0.1442181359455058
  0.8443328062470037  0.8553892811312175  0.8473751950398730
  0.3430949807990263  0.3504010463565609  0.3561804675082097
  0.9558088209910205  0.2511812492733896  0.5347103169969615
  0.4549232749624640  0.0539992285422478  0.7467389735529869
  0.5368329115825431  0.9528653929227825  0.2517867072571524
  0.7363648145838052  0.4691076435818123  0.0494833913127035
  0.2471819300490800  0.5354359726248226  0.9572195586555573
  0.0335133370736146  0.7564284481361595  0.4521820170904410
  0.3841935687260577  0.6177684184746343  0.7636892489793689
  0.9355245391852924  0.3348212655585817  0.0266925304658950
  0.7563783387725513  0.3836075093431618  0.6088490217605480
  0.0039643666330606  0.9588752779096593  0.3237617101469120
  0.6059520920269618  0.7568989925144821  0.3939859699765477
  0.3090326407796785  0.0275942553703186  0.9434862579436639
  0.6834210610033957  0.9699841872576125  0.0578676435463376
  0.2342252973854299  0.6289436310629448  0.3695890248591764
  0.0497700064769043  0.6704344014197854  0.9706466034138730
  0.3778914032859922  0.2543303304910132  0.6132657993384364
  0.9776557324353858  0.0483999230402400  0.6627980956329513
  0.6012807985229667  0.3957226920030342  0.2485696344163783
  0.9888423505290718  0.2817282012016141  0.3390283258396295
  0.4971580971142296  0.9093758123209630  0.6841360771708664
  0.3568032635033789  0.9599877956635002  0.2685126833742674
  0.6833668639221806  0.4909950508726838  0.9069171530569039
  0.2817537674897994  0.3498381003848970  0.9614461376221828
  0.8955194315162248  0.6977444896471450  0.4754027603420817
  0.0963740303095944  0.2964841133893029  0.5266079072026142
  0.6319376722893196  0.0430641246671101  0.7363615688106310
  0.4993447808845106  0.1029707919819964  0.3036123447896553
  0.7105021846996208  0.6595079756492498  0.0265200058224059
  0.2880977680775901  0.5063808488068430  0.1107115242407313
  0.0199650133488475  0.7229508695502057  0.6422431347601947
 
             NaN             NaN             NaN
             NaN             NaN             NaN
             NaN             NaN             NaN
             NaN             NaN             NaN
             NaN             NaN             NaN
             NaN             NaN             NaN
             NaN             NaN             NaN
             NaN             NaN             NaN
             NaN             NaN             NaN
             NaN             NaN             NaN
             NaN             NaN             NaN
             NaN             NaN             NaN
             NaN             NaN             NaN
             NaN             NaN             NaN
             NaN             NaN             NaN
             NaN             NaN             NaN
             NaN             NaN             NaN
             NaN             NaN             NaN
             NaN             NaN             NaN
             NaN             NaN             NaN
             NaN             NaN             NaN
             NaN             NaN             NaN
             NaN             NaN             NaN
             NaN             NaN             NaN
             NaN             NaN             NaN
             NaN             NaN             NaN
             NaN             NaN             NaN
             NaN             NaN             NaN
             NaN             NaN             NaN
             NaN             NaN             NaN
             NaN             NaN             NaN
             NaN             NaN             NaN
             NaN             NaN             NaN
             NaN             NaN             NaN
             NaN             NaN             NaN
