Fe3 S4                                  
   1.00000000000000     
    -1.7950882884024402   -3.1090865036923110   -0.0022348829515738
    -3.5898857117856626   -0.0001679834743348   -0.0022009271368339
    -1.8023113484168061   -1.0407291857974179  -11.8475007011821010
   Fe   S 
     3     4
Direct
  0.5000013957302301  0.4999991402110595  0.4999999662371550
  0.5873216935890255  0.5873186433797031  0.2399790664442634
  0.4126762680045317  0.4126833904890077  0.7600208493873666
  0.7131988290196247  0.7131990269829274  0.8588494168221530
  0.2867991217485866  0.2868029220892510  0.1411506021058315
  0.8743049731536487  0.8742902053061101  0.3774295928287259
  0.1256977187543526  0.1257066715419413  0.6225705061744975
 
  0.00000000E+00  0.00000000E+00  0.00000000E+00
  0.00000000E+00  0.00000000E+00  0.00000000E+00
  0.00000000E+00  0.00000000E+00  0.00000000E+00
  0.00000000E+00  0.00000000E+00  0.00000000E+00
  0.00000000E+00  0.00000000E+00  0.00000000E+00
  0.00000000E+00  0.00000000E+00  0.00000000E+00
  0.00000000E+00  0.00000000E+00  0.00000000E+00
