Ca5 Fe4 P6 O24                          
   1.00000000000000     
     2.5949602445444229    7.9704945649590941    4.5349225775852204
    -0.1930124445227696    0.2154542137365282    8.5354338136694956
     7.5130023201688267    0.2706532354956522    4.0537253164581699
   Ca   Fe   P    O 
     5     4     6    24
Direct
  0.5825102591911714  0.4119869830313913  0.5087818849617354
  0.9133989529028146  0.9861248374572974  0.0848742699829775
  0.3780809903532047  0.7277069745747354  0.0692131652888047
  0.1175955825186707  0.4262347441388891  0.7688869782432098
  0.2466210006963199  0.8719606967753196  0.6243236211274052
  0.6864872463178197  0.6650276885901101  0.6080868887965629
  0.1858406272240314  0.1370109081319282  0.1692325021625875
  0.8068175874292832  0.8901860900243019  0.8284878882007976
  0.3114190998093210  0.3270141415694240  0.3575734503640318
  0.2479789411767661  0.5295228652423488  0.9663884240649702
  0.0469859445118737  0.7696818455629466  0.4176820409272740
  0.9660398178671665  0.2321026333977136  0.5934204536795536
  0.4488946681855688  0.0788909415547085  0.7255256619977265
  0.5300568080033651  0.9023187805233053  0.2638409157015623
  0.7483753586200874  0.4850658436402411  0.0112194670127292
  0.5626980599849670  0.7242516875618800  0.4300623498931471
  0.2914829394583655  0.1133817900238213  0.9032682936020470
  0.3413434563171191  0.5343261820357631  0.7558204801468881
  0.8858100028261043  0.2917982591716491  0.0072823775317316
  0.8000570656734507  0.3889432347544440  0.5732466826035097
  0.0883913734988197  0.9296329005957037  0.2398447660648109
  0.9332393746910419  0.0661285960294389  0.7718877505777810
  0.6102403468026281  0.4902884932604530  0.2041296149182248
  0.6959923705909025  0.9224043661050398  0.1060996582648213
  0.2047890148165380  0.5925724081192232  0.3824775525752961
  0.1543922146976733  0.7397624446062065  0.9621520714014106
  0.4073940608026749  0.2561613945477376  0.5656073887785952
  0.1292296725796008  0.4186852609465437  0.0516161456664689
  0.8826452826839657  0.7670166106299070  0.4285667181087328
  0.0678076774115204  0.1421378414897489  0.4324319489202958
  0.4657725224460392  0.8983595711117789  0.7095174077941491
  0.4097126851283495  0.8921969791263747  0.2014904221504424
  0.6514744387823199  0.5583519333532956  0.8773222184285542
  0.3673086909945320  0.4449021905218000  0.0762325033568375
  0.0311047110234659  0.7864986784737552  0.5974664191654488
  0.0861744248678885  0.2952027340201722  0.6029424904908786
  0.6126103269611829  0.0703285417093059  0.7277805973647584
  0.4286264469225626  0.0634308288657951  0.3534256787046750
  0.8454999552308669  0.6192010987255072  0.9367908509785827
 
  0.00000000E+00  0.00000000E+00  0.00000000E+00
  0.00000000E+00  0.00000000E+00  0.00000000E+00
  0.00000000E+00  0.00000000E+00  0.00000000E+00
  0.00000000E+00  0.00000000E+00  0.00000000E+00
  0.00000000E+00  0.00000000E+00  0.00000000E+00
  0.00000000E+00  0.00000000E+00  0.00000000E+00
  0.00000000E+00  0.00000000E+00  0.00000000E+00
  0.00000000E+00  0.00000000E+00  0.00000000E+00
  0.00000000E+00  0.00000000E+00  0.00000000E+00
  0.00000000E+00  0.00000000E+00  0.00000000E+00
  0.00000000E+00  0.00000000E+00  0.00000000E+00
  0.00000000E+00  0.00000000E+00  0.00000000E+00
  0.00000000E+00  0.00000000E+00  0.00000000E+00
  0.00000000E+00  0.00000000E+00  0.00000000E+00
  0.00000000E+00  0.00000000E+00  0.00000000E+00
  0.00000000E+00  0.00000000E+00  0.00000000E+00
  0.00000000E+00  0.00000000E+00  0.00000000E+00
  0.00000000E+00  0.00000000E+00  0.00000000E+00
  0.00000000E+00  0.00000000E+00  0.00000000E+00
  0.00000000E+00  0.00000000E+00  0.00000000E+00
  0.00000000E+00  0.00000000E+00  0.00000000E+00
  0.00000000E+00  0.00000000E+00  0.00000000E+00
  0.00000000E+00  0.00000000E+00  0.00000000E+00
  0.00000000E+00  0.00000000E+00  0.00000000E+00
  0.00000000E+00  0.00000000E+00  0.00000000E+00
  0.00000000E+00  0.00000000E+00  0.00000000E+00
  0.00000000E+00  0.00000000E+00  0.00000000E+00
  0.00000000E+00  0.00000000E+00  0.00000000E+00
  0.00000000E+00  0.00000000E+00  0.00000000E+00
  0.00000000E+00  0.00000000E+00  0.00000000E+00
  0.00000000E+00  0.00000000E+00  0.00000000E+00
  0.00000000E+00  0.00000000E+00  0.00000000E+00
  0.00000000E+00  0.00000000E+00  0.00000000E+00
  0.00000000E+00  0.00000000E+00  0.00000000E+00
  0.00000000E+00  0.00000000E+00  0.00000000E+00
  0.00000000E+00  0.00000000E+00  0.00000000E+00
  0.00000000E+00  0.00000000E+00  0.00000000E+00
  0.00000000E+00  0.00000000E+00  0.00000000E+00
  0.00000000E+00  0.00000000E+00  0.00000000E+00
