Ca1 Fe4 S6 O24                          
   1.00000000000000     
     7.5690340000000003    0.2014490000000000    4.5744470000000002
     2.6779970000000000    7.0746529999999996    4.5853580000000003
     0.2939960000000000    0.2199380000000000    8.8438479999999995
   Ca   Fe   S    O 
     1     4     6    24
Direct
  0.3116288725497476  0.6981380919998004  0.5404051357269376
  0.6640192334979844  0.6320200492001019  0.6499046011221118
  0.1483763631434083  0.1520428933716606  0.1328936676390547
  0.8187848303795907  0.8570596765567855  0.8677560338884202
  0.3533108179333064  0.3463327580982236  0.3617749868098784
  0.9706368811167722  0.2382331362243872  0.5302029270965390
  0.4551854962368759  0.0504172508556025  0.7476335265417693
  0.5413620688849430  0.9544357761960122  0.2529543816378976
  0.7388286737873335  0.4657479087982107  0.0496390557299917
  0.2556716614709937  0.5264252416739589  0.9628160846900972
  0.0254819666531835  0.7558872191630323  0.4411866779753856
  0.4095713343110832  0.5926990801856892  0.7808002116285070
  0.9357272943843422  0.3351176089639579  0.0269288006058736
  0.7795235073704039  0.3633890826569186  0.6189483665341152
  0.0054445751178042  0.9562933262011034  0.3134632481015038
  0.5908666523610565  0.7661182991455500  0.4042853586023228
  0.3083172832831323  0.0219959148258225  0.9438107032554768
  0.6976829983630637  0.9558262143995491  0.0638590894833700
  0.2300401914814644  0.6286984698539952  0.3785770776887642
  0.0746947715981305  0.6711612862004450  0.9327268528350068
  0.3776502391429835  0.2418305945481898  0.6166264359816385
  0.9982860307196001  0.0303868595712283  0.6472272432486749
  0.6044742756117807  0.3923933213893407  0.2415027880794231
  0.9900643871650953  0.2772792069634643  0.3363859266280826
  0.5086171441803654  0.8970228235272552  0.6872296640001646
  0.3609499551773730  0.9735875501945281  0.2602422388435079
  0.6895997627362258  0.4918339484400815  0.9023955567180508
  0.2874321338330751  0.3397223510624327  0.9744512719362023
  0.8995517204371477  0.6946121374183444  0.4471478112015964
  0.1216519563787137  0.2749796306518646  0.5170162971263810
  0.6255952158119557  0.0430142691437587  0.7464424281552419
  0.5136460628057774  0.1095784359681716  0.2929712724209459
  0.7170131608330961  0.6556451938099110  0.0276607591068166
  0.2694891913972117  0.5125632133419151  0.1263500629033538
  0.9865686586793729  0.7309935346098803  0.6391077995960729
 
             NaN             NaN             NaN
             NaN             NaN             NaN
             NaN             NaN             NaN
             NaN             NaN             NaN
             NaN             NaN             NaN
             NaN             NaN             NaN
             NaN             NaN             NaN
             NaN             NaN             NaN
             NaN             NaN             NaN
             NaN             NaN             NaN
             NaN             NaN             NaN
             NaN             NaN             NaN
             NaN             NaN             NaN
             NaN             NaN             NaN
             NaN             NaN             NaN
             NaN             NaN             NaN
             NaN             NaN             NaN
             NaN             NaN             NaN
             NaN             NaN             NaN
             NaN             NaN             NaN
             NaN             NaN             NaN
             NaN             NaN             NaN
             NaN             NaN             NaN
             NaN             NaN             NaN
             NaN             NaN             NaN
             NaN             NaN             NaN
             NaN             NaN             NaN
             NaN             NaN             NaN
             NaN             NaN             NaN
             NaN             NaN             NaN
             NaN             NaN             NaN
             NaN             NaN             NaN
             NaN             NaN             NaN
             NaN             NaN             NaN
             NaN             NaN             NaN
