Ca1 Co4 P6 O24                          
   1.00000000000000     
     2.6567560000000001    7.0046720000000002    4.4917389999999999
     0.2897400000000000    0.2814930000000000    8.7210230000000006
     7.4292990000000003    0.2448170000000000    4.5394889999999997
   Ca   Co   P    O 
     1     4     6    24
Direct
  0.3797955602855409  0.6327584870172892  0.4997159426013680
  0.6431395468964267  0.6429787038226773  0.6496855539457698
  0.1322751241926128  0.1497098684133424  0.1391976385288805
  0.8516952460362176  0.8607264373489243  0.8563527720724341
  0.3536678543597278  0.3467883947245102  0.3630914085001036
  0.2491349287724280  0.5235746915519369  0.9652796484575508
  0.0191329503575394  0.7524676855976012  0.4640903869698845
  0.9645353087470168  0.2510390008492245  0.5252859658005355
  0.4582759366892072  0.0379908115126416  0.7495345245974993
  0.5386547640467744  0.9671032803417412  0.2480893520740486
  0.7387219980685261  0.4767248280568706  0.0479176436241031
  0.6014935367409669  0.7601879965812978  0.3964994699774018
  0.3033632168644878  0.0183160277607820  0.9577038868284348
  0.4034117396813752  0.5934671802815537  0.7662343430080691
  0.9359395123760921  0.3099428568392676  0.0270826265590996
  0.7671656900800938  0.3901269940382122  0.6139980336296249
  0.0113583118358547  0.9622868386549651  0.3262075511129081
  0.9852203921766720  0.0371857030752011  0.6590488697318194
  0.5836836140243949  0.4140075118524449  0.2449586872829036
  0.6933594351889433  0.9862360356229204  0.0416664590572131
  0.2217351644078453  0.6135965038978111  0.3782905948253873
  0.0538936121443856  0.6929786027495318  0.9637119730484428
  0.3913695563436950  0.2479214188409110  0.6073130874217768
  0.2550490812836144  0.3461420300567340  0.9645230663672185
  0.8644307809947238  0.7126063774025094  0.4770267939495914
  0.9866825325652321  0.2884803097678072  0.3227982869179559
  0.4804473362805510  0.8919200560224866  0.6881373204804810
  0.3451927883460914  0.9862434581775336  0.2649028962889298
  0.6871005123144499  0.5296784931471336  0.8778003360108985
  0.2985610626805223  0.4776657230805825  0.1298080050856080
  0.0141986141314153  0.7133302997614449  0.6609761765612369
  0.1287758731384857  0.2829045989653540  0.5112557567701120
  0.6521212029072783  0.0008523627552264  0.7459127044791776
  0.5194428551458383  0.1161486858768203  0.3039485458171998
  0.7399097182038707  0.6549603618873213  0.0377534348348149
 
             NaN             NaN             NaN
             NaN             NaN             NaN
             NaN             NaN             NaN
             NaN             NaN             NaN
             NaN             NaN             NaN
             NaN             NaN             NaN
             NaN             NaN             NaN
             NaN             NaN             NaN
             NaN             NaN             NaN
             NaN             NaN             NaN
             NaN             NaN             NaN
             NaN             NaN             NaN
             NaN             NaN             NaN
             NaN             NaN             NaN
             NaN             NaN             NaN
             NaN             NaN             NaN
             NaN             NaN             NaN
             NaN             NaN             NaN
             NaN             NaN             NaN
             NaN             NaN             NaN
             NaN             NaN             NaN
             NaN             NaN             NaN
             NaN             NaN             NaN
             NaN             NaN             NaN
             NaN             NaN             NaN
             NaN             NaN             NaN
             NaN             NaN             NaN
             NaN             NaN             NaN
             NaN             NaN             NaN
             NaN             NaN             NaN
             NaN             NaN             NaN
             NaN             NaN             NaN
             NaN             NaN             NaN
             NaN             NaN             NaN
             NaN             NaN             NaN
