Ca1 Co4 P6 O24
1.0
2.656756 7.004672 4.491739
0.289740 0.281493 8.721023
7.429299 0.244817 4.539489
Ca Co P O
1 4 6 24
direct
0.434903 0.593920 0.526316 Ca
0.646669 0.642742 0.644013 Co
0.138410 0.140581 0.139636 Co
0.853929 0.852992 0.854091 Co
0.353729 0.350039 0.351016 Co
0.248716 0.528588 0.958807 P
0.036316 0.743824 0.468643 P
0.957041 0.250651 0.526974 P
0.467636 0.035119 0.744337 P
0.530943 0.960011 0.246366 P
0.744878 0.468081 0.038127 P
0.604071 0.758916 0.393543 O
0.316056 0.019232 0.950961 O
0.394503 0.601939 0.756465 O
0.948423 0.311978 0.017859 O
0.759701 0.397487 0.600828 O
0.022743 0.947715 0.314342 O
0.971561 0.045196 0.680616 O
0.599829 0.394838 0.240116 O
0.680598 0.979183 0.039441 O
0.234247 0.596668 0.395711 O
0.046606 0.686891 0.972610 O
0.393456 0.238206 0.599780 O
0.261857 0.339682 0.976469 O
0.875141 0.699599 0.497493 O
0.973375 0.269124 0.335001 O
0.489001 0.881024 0.693602 O
0.334944 0.978733 0.271699 O
0.690843 0.503216 0.878729 O
0.299729 0.496051 0.118825 O
0.022695 0.725527 0.659633 O
0.120560 0.289457 0.500649 O
0.662097 0.011497 0.724453 O
0.502527 0.118174 0.297369 O
0.732444 0.655660 0.022621 O
