Ca1 Fe4 P6 O24                          
   1.00000000000000     
     2.6930790000000000    7.0208870000000001    4.6284679999999998
     0.3193820000000000    0.2568670000000000    8.8149890000000006
     7.4255389999999997    0.2862460000000000    4.6001420000000000
   Ca   Fe   P    O 
     1     4     6    24
Direct
  0.2580309110181120  0.8476629317360722  0.6066830685408608
  0.6614128861579430  0.6355506905425715  0.6399353842434979
  0.1457329589739926  0.1519016960712070  0.1435552366077752
  0.8349471180900496  0.8385007481071802  0.8500287474331440
  0.3600511230913813  0.3491330686865226  0.3605996360001826
  0.2427402354061395  0.5187992072396915  0.9758569322910771
  0.0344025257122351  0.7569233446517276  0.4559079252761073
  0.9649833153151512  0.2444916500728889  0.5207567002355605
  0.4434839521086978  0.0218980188909055  0.7625815213708594
  0.5441364468676906  0.9763170297513800  0.2249649835041902
  0.7594851433516088  0.4528758755465110  0.0433927858457207
  0.5852155483263808  0.7837955169454341  0.3941269015180276
  0.3053577110190950  0.0090729460743606  0.9769725227026131
  0.4185257451386100  0.5605360698414100  0.7906812979663654
  0.9677937853659264  0.2971630590729753  0.0210249463859151
  0.7876356171938336  0.4075447683770055  0.5802098218218199
  0.0272684320946721  0.9683908316041382  0.3252080067376357
  0.9428338848279878  0.0434654523070092  0.6609442099431940
  0.6064660437621303  0.3933084217519984  0.2400618908163040
  0.6924686245443363  0.9723873402316404  0.0185897004012140
  0.2293830987961983  0.6060256335417886  0.3906311828289929
  0.0589434899668880  0.7009594227622100  0.9368199237612367
  0.3884302298928646  0.2246656346786033  0.6150644275957133
  0.2616948677861829  0.3321715164935141  0.9752528775613227
  0.8636964547112356  0.7423510730376844  0.4729531579884088
  0.9870549557064836  0.2877661533372761  0.3107124085387579
  0.4484909791173690  0.8718457721800886  0.7224866985868542
  0.3366616170560963  1.0000546987863173  0.2603039474660151
  0.7266423636327588  0.5014502618253913  0.8679138057989374
  0.2437837844602809  0.4939936922409928  0.1588591246154357
  0.0174931312266938  0.7170774351568466  0.6644592043071976
  0.1535843214755066  0.2146509462498824  0.5180445216748431
  0.6554445760683262  0.9715347016267643  0.7371992408163343
  0.5323800050607307  0.1419280260178007  0.2439417238138947
  0.7473735225129483  0.6423570014476916  0.0357887233812472
 
             NaN             NaN             NaN
             NaN             NaN             NaN
             NaN             NaN             NaN
             NaN             NaN             NaN
             NaN             NaN             NaN
             NaN             NaN             NaN
             NaN             NaN             NaN
             NaN             NaN             NaN
             NaN             NaN             NaN
             NaN             NaN             NaN
             NaN             NaN             NaN
             NaN             NaN             NaN
             NaN             NaN             NaN
             NaN             NaN             NaN
             NaN             NaN             NaN
             NaN             NaN             NaN
             NaN             NaN             NaN
             NaN             NaN             NaN
             NaN             NaN             NaN
             NaN             NaN             NaN
             NaN             NaN             NaN
             NaN             NaN             NaN
             NaN             NaN             NaN
             NaN             NaN             NaN
             NaN             NaN             NaN
             NaN             NaN             NaN
             NaN             NaN             NaN
             NaN             NaN             NaN
             NaN             NaN             NaN
             NaN             NaN             NaN
             NaN             NaN             NaN
             NaN             NaN             NaN
             NaN             NaN             NaN
             NaN             NaN             NaN
             NaN             NaN             NaN
