Ca1 Fe4 P6 O24
1.0
2.693079 7.020887 4.628468
0.319382 0.256867 8.814989
7.425539 0.286246 4.600142
Ca Fe P O
1 4 6 24
direct
0.282976 0.832344 0.613359 Ca
0.658720 0.636473 0.640436 Fe
0.145611 0.150925 0.146871 Fe
0.838220 0.839778 0.848875 Fe
0.358832 0.354372 0.355528 Fe
0.238973 0.524947 0.973533 P
0.035719 0.758122 0.456806 P
0.956187 0.249960 0.522925 P
0.451067 0.026141 0.761417 P
0.535490 0.975096 0.231151 P
0.763180 0.450081 0.037337 P
0.580602 0.785220 0.399620 O
0.316137 0.013017 0.976261 O
0.406311 0.576124 0.784104 O
0.971731 0.297245 0.018002 O
0.772071 0.411136 0.578204 O
0.024599 0.969512 0.317323 O
0.943387 0.046641 0.669968 O
0.609426 0.392569 0.235236 O
0.679821 0.970342 0.024932 O
0.230808 0.606925 0.391765 O
0.047829 0.701484 0.948198 O
0.390082 0.225460 0.612179 O
0.260313 0.334576 0.979632 O
0.865370 0.737367 0.480407 O
0.979937 0.285679 0.315310 O
0.456302 0.869514 0.730837 O
0.324810 0.998548 0.275028 O
0.731175 0.487977 0.865881 O
0.246623 0.502837 0.151724 O
0.021914 0.723847 0.661277 O
0.136863 0.237687 0.518317 O
0.663283 -0.018498 0.727626 O
0.522330 0.142255 0.249111 O
0.746132 0.644320 0.024151 O
