Ca1 Ni4 S6 O24                          
   1.00000000000000     
     7.7079190000000004    0.2647330000000000    4.0395719999999997
     2.7501069999999999    7.0438229999999997    4.3016819999999996
     0.6506970000000000    0.1938850000000000    8.6918349999999993
   Ca   Ni   S    O 
     1     4     6    24
Direct
  0.2546600319487574  0.8615959226109441  0.5850220816500342
  0.6541561515885778  0.6528068910753707  0.6407446316667685
  0.1334474018729387  0.1546525141099670  0.1350126423915427
  0.8475762696112462  0.8318858881694879  0.8592968058847601
  0.3606457632151859  0.3367667133794662  0.3556774794317228
  0.9648220729309570  0.2508323969466175  0.5206512266714319
  0.4371747247968458  0.0301583985714153  0.7535067804697824
  0.5626175206445944  0.9682654882434801  0.2302389313733657
  0.7377212721905524  0.4574153673205332  0.0586948745877678
  0.2581341725055069  0.5261455171339312  0.9473106687542324
  0.0333160525597545  0.7425830619807903  0.4655940696197904
  0.4274726984036613  0.5542161248529734  0.7674504273290351
  0.8903515080513810  0.2642009431148891  0.0835805284555071
  0.8317016198259021  0.4235058075519554  0.5652530249198506
  0.1139256671565345  0.8896805102837462  0.3015676278209600
  0.5858328704972968  0.7802062256919122  0.3962334877933349
  0.2609974229495809  0.0623180438837950  0.9183073568775176
  0.7207874169939846  0.9480768324733585  0.0543661016253311
  0.1514262784079991  0.5532408294877009  0.4484356299873504
  0.0985801853605638  0.7177342912798835  0.9178875153862738
  0.4284177858392166  0.2147831142413787  0.5898053130284308
  0.9200963950798247  0.0765957745725231  0.6770532778994053
  0.5625063336632189  0.4492464862253360  0.2294414989897362
  0.9664501080894397  0.2686349961937173  0.3432666234578930
  0.4392930220729950  0.8882989600488538  0.7059532107134365
  0.3741213937308767  0.0172659938055215  0.2250943942514856
  0.6987329854400602  0.5153460392540112  0.8883109864353854
  0.2125977942945534  0.3816014329700275  0.9578339567057362
  0.8345566798409577  0.7957214811552454  0.4894800357636309
  0.1644792237198562  0.2046074788452492  0.5014012125098775
  0.6074524546085835  0.9567505227476762  0.7977487070032059
  0.5583150722466506  0.1139979155824166  0.2697907162858457
  0.7998246971606712  0.5935273628976256  0.0423029162677839
  0.2952026183967661  0.4758477011672177  0.1143128442027513
  0.0380603086282960  0.7317523761945541  0.6411017036433400
 
             NaN             NaN             NaN
             NaN             NaN             NaN
             NaN             NaN             NaN
             NaN             NaN             NaN
             NaN             NaN             NaN
             NaN             NaN             NaN
             NaN             NaN             NaN
             NaN             NaN             NaN
             NaN             NaN             NaN
             NaN             NaN             NaN
             NaN             NaN             NaN
             NaN             NaN             NaN
             NaN             NaN             NaN
             NaN             NaN             NaN
             NaN             NaN             NaN
             NaN             NaN             NaN
             NaN             NaN             NaN
             NaN             NaN             NaN
             NaN             NaN             NaN
             NaN             NaN             NaN
             NaN             NaN             NaN
             NaN             NaN             NaN
             NaN             NaN             NaN
             NaN             NaN             NaN
             NaN             NaN             NaN
             NaN             NaN             NaN
             NaN             NaN             NaN
             NaN             NaN             NaN
             NaN             NaN             NaN
             NaN             NaN             NaN
             NaN             NaN             NaN
             NaN             NaN             NaN
             NaN             NaN             NaN
             NaN             NaN             NaN
             NaN             NaN             NaN
