Ca1 Ni4 S6 O24                          
   1.00000000000000     
     7.7079190000000004    0.2647330000000000    4.0395719999999997
     2.7501069999999999    7.0438229999999997    4.3016819999999996
     0.6506970000000000    0.1938850000000000    8.6918349999999993
   Ca   Ni   S    O 
     1     4     6    24
Direct
  0.2554312857563718  0.8635483765427751  0.5885842988107328
  0.6621961270406259  0.6492328457877671  0.6430553650993732
  0.1351607656433572  0.1550456872564058  0.1374543136048036
  0.8472513044710064  0.8329548412516584  0.8566858708259120
  0.3611434091587169  0.3353062255928376  0.3545850821589641
  0.9594745076473786  0.2569976723567302  0.5197177063812274
  0.4416890725161502  0.0285902119315802  0.7529883200150965
  0.5596738932397127  0.9652018264667331  0.2335788073938557
  0.7395458218900419  0.4533539839635326  0.0606067232892000
  0.2539224077389789  0.5281372295876100  0.9457498966114916
  0.0359852082435904  0.7420158516477918  0.4653611161265312
  0.4267854146444421  0.5586529974012630  0.7650862569253742
  0.9011212083533479  0.2644702916226699  0.0740683595515753
  0.8321859142259093  0.4182416024828036  0.5680646357837864
  0.1045752214485233  0.8932952748843624  0.2943130939619986
  0.5873119974675652  0.7791380539458219  0.3930503978215609
  0.2844835087506569  0.0441155162588672  0.9286828132038073
  0.7074131570088161  0.9540042224283575  0.0495365235435497
  0.1564760566452692  0.5530668182495184  0.4461074602166866
  0.0951850447354629  0.7170198327846408  0.9197857807305806
  0.4153464279674255  0.2189514209617619  0.5974933798172596
  0.9220094528808734  0.0780892221245666  0.6771315317378522
  0.5733037827320491  0.4327706712697017  0.2372112294720571
  0.9645802793353810  0.2732307953665543  0.3436599478652639
  0.4400112581532554  0.8896131028105220  0.7024088153701441
  0.3621401718646914  0.0186896529141374  0.2359112961907691
  0.6912227211747792  0.5111256216983874  0.8939745171308416
  0.2123346568836434  0.3812831098432795  0.9573447918716245
  0.8377297649732659  0.7862758829856550  0.4932733667272760
  0.1618924379942664  0.2103330609764122  0.4997620843134037
  0.6230222634299196  0.9571644387301194  0.7743746704172727
  0.5563118451923655  0.1121862611301194  0.2718923710743314
  0.7964575085790909  0.5954615959345824  0.0401578591327849
  0.2953001872591113  0.4740310943193136  0.1165162132984880
  0.0414969538626728  0.7363072674215648  0.6341478469930962
 
             NaN             NaN             NaN
             NaN             NaN             NaN
             NaN             NaN             NaN
             NaN             NaN             NaN
             NaN             NaN             NaN
             NaN             NaN             NaN
             NaN             NaN             NaN
             NaN             NaN             NaN
             NaN             NaN             NaN
             NaN             NaN             NaN
             NaN             NaN             NaN
             NaN             NaN             NaN
             NaN             NaN             NaN
             NaN             NaN             NaN
             NaN             NaN             NaN
             NaN             NaN             NaN
             NaN             NaN             NaN
             NaN             NaN             NaN
             NaN             NaN             NaN
             NaN             NaN             NaN
             NaN             NaN             NaN
             NaN             NaN             NaN
             NaN             NaN             NaN
             NaN             NaN             NaN
             NaN             NaN             NaN
             NaN             NaN             NaN
             NaN             NaN             NaN
             NaN             NaN             NaN
             NaN             NaN             NaN
             NaN             NaN             NaN
             NaN             NaN             NaN
             NaN             NaN             NaN
             NaN             NaN             NaN
             NaN             NaN             NaN
             NaN             NaN             NaN
