Ca2 Ni4 S6 O24                          
   1.00000000000000     
     7.4785246661165834    0.0998223330802253    4.7184998968425056
     2.5095295024528372    7.0295939074890486    4.6697929257941233
     0.0440036412741530    0.1342952278828437    8.7504224003314839
   Ca   Ni   S    O 
     2     4     6    24
Direct
  0.9805741138373349  0.0407017376073213  0.9684638398655210
  0.4057865129926270  0.7372994133820896  0.1305407760819008
  0.6493857137499646  0.6283401060502172  0.6469583783145652
  0.1548842903424159  0.1561862579581259  0.1472683586152712
  0.8506450197645208  0.8569807750703333  0.8460336666159520
  0.3364700845837092  0.3410485657564735  0.3539724783841862
  0.9455109298195268  0.2530525824268111  0.5432181548299013
  0.4641564371011455  0.0242155563825648  0.7452603080625551
  0.5393088392615937  0.9612698275001392  0.2452519874363759
  0.7608581176238474  0.4350007916561722  0.0337950203527413
  0.2426270500189887  0.5652181009974910  0.9559055827409750
  0.0373608658112801  0.7441253045783114  0.4574453434747454
  0.4244821751552266  0.5365132285274754  0.7996119835770372
  0.9196035069994721  0.2657739250485633  0.0880209955349116
  0.7973434575903724  0.4404304364688230  0.5081381211072582
  0.0829819349825272  0.9013432934138876  0.2597009421709586
  0.5223517224441707  0.8344348401000019  0.4437735560616503
  0.2705878114260543  0.0803725182007042  0.8953998977113997
  0.7348621755797993  0.8950750260886053  0.1097475310101430
  0.2147483722760910  0.5736988239419460  0.4423602727634020
  0.1027154771177479  0.7602781974233679  0.8902881448553117
  0.4677140739581773  0.1521245927610124  0.5514654486195170
  0.8696030016180245  0.1186065139359727  0.7420023450455631
  0.5825168054285186  0.4201126224632787  0.2004390699544984
  0.0072888086927421  0.1721460958661751  0.4047100394060976
  0.4939598744351770  0.8242224604998256  0.7853882543130553
  0.4022607974408885  0.9590980802837095  0.1965176365122048
  0.7637336436243132  0.4279435860403495  0.8683350976203386
  0.1641465102585826  0.4206674723971631  0.0268062049736031
  0.8766349561256774  0.7187969771658089  0.4815145329152131
  0.1078011832695864  0.2592347654725415  0.5471614435322678
  0.6022760364602746  0.0182796628304374  0.7919421685658250
  0.4961521476213377  0.1599858446424847  0.2095893075558379
  0.7684673890883502  0.6170239329457203  0.9910295379174130
  0.2612210953549265  0.5631298103973563  0.1174018056977246
  0.0054790681450569  0.7958682737187814  0.6051417678041275
 
  0.00000000E+00  0.00000000E+00  0.00000000E+00
  0.00000000E+00  0.00000000E+00  0.00000000E+00
  0.00000000E+00  0.00000000E+00  0.00000000E+00
  0.00000000E+00  0.00000000E+00  0.00000000E+00
  0.00000000E+00  0.00000000E+00  0.00000000E+00
  0.00000000E+00  0.00000000E+00  0.00000000E+00
  0.00000000E+00  0.00000000E+00  0.00000000E+00
  0.00000000E+00  0.00000000E+00  0.00000000E+00
  0.00000000E+00  0.00000000E+00  0.00000000E+00
  0.00000000E+00  0.00000000E+00  0.00000000E+00
  0.00000000E+00  0.00000000E+00  0.00000000E+00
  0.00000000E+00  0.00000000E+00  0.00000000E+00
  0.00000000E+00  0.00000000E+00  0.00000000E+00
  0.00000000E+00  0.00000000E+00  0.00000000E+00
  0.00000000E+00  0.00000000E+00  0.00000000E+00
  0.00000000E+00  0.00000000E+00  0.00000000E+00
  0.00000000E+00  0.00000000E+00  0.00000000E+00
  0.00000000E+00  0.00000000E+00  0.00000000E+00
  0.00000000E+00  0.00000000E+00  0.00000000E+00
  0.00000000E+00  0.00000000E+00  0.00000000E+00
  0.00000000E+00  0.00000000E+00  0.00000000E+00
  0.00000000E+00  0.00000000E+00  0.00000000E+00
  0.00000000E+00  0.00000000E+00  0.00000000E+00
  0.00000000E+00  0.00000000E+00  0.00000000E+00
  0.00000000E+00  0.00000000E+00  0.00000000E+00
  0.00000000E+00  0.00000000E+00  0.00000000E+00
  0.00000000E+00  0.00000000E+00  0.00000000E+00
  0.00000000E+00  0.00000000E+00  0.00000000E+00
  0.00000000E+00  0.00000000E+00  0.00000000E+00
  0.00000000E+00  0.00000000E+00  0.00000000E+00
  0.00000000E+00  0.00000000E+00  0.00000000E+00
  0.00000000E+00  0.00000000E+00  0.00000000E+00
  0.00000000E+00  0.00000000E+00  0.00000000E+00
  0.00000000E+00  0.00000000E+00  0.00000000E+00
  0.00000000E+00  0.00000000E+00  0.00000000E+00
  0.00000000E+00  0.00000000E+00  0.00000000E+00
