Ca1 Co4 S6 O24                          
   1.00000000000000     
     7.4696689999999997    0.2334700000000000    4.6812129999999996
     2.7172139999999998    6.9547920000000003    4.7058819999999999
     0.3437700000000000    0.2137040000000000    8.7959619999999994
   Ca   Co   S    O 
     1     4     6    24
Direct
  0.3743516104386942  0.6454946164505498  0.5007580235657608
  0.6511164796665713  0.6405236797132225  0.6504682853812610
  0.1433561940919229  0.1579015646783854  0.1426801751263012
  0.8425399038234500  0.8490748080178914  0.8489706723673581
  0.3504850540116371  0.3428008829577276  0.3649852445999361
  0.9648451434413879  0.2436054767474089  0.5311958001417996
  0.4513295277414976  0.0409345807141019  0.7539709557958436
  0.5495013838288384  0.9639946686455292  0.2416462736635951
  0.7340019487788860  0.4684313065000837  0.0562824025822995
  0.2472698223981053  0.5331026952854226  0.9589688069333279
  0.0258792432781021  0.7549577425690437  0.4517158639513825
  0.3914794828164374  0.6135154005406043  0.7662095703757430
  0.9351629586841965  0.3264882065805129  0.0292438730292143
  0.7709546383061380  0.3701405703090058  0.6245006021307040
  0.0049644120035647  0.9590676317095888  0.3333487585435735
  0.6149378950739028  0.7596768612647843  0.3809505406121597
  0.3165310426699114  0.0130540740287064  0.9603109172539162
  0.6863017213860384  0.9859727312901848  0.0405398222290899
  0.2286286013546890  0.6271525085432481  0.3641691533765935
  0.0510925496899690  0.6812063915222935  0.9629290002711055
  0.3741915276989957  0.2449473905646594  0.6262729291941345
  0.9926933710545438  0.0345091877318134  0.6431050073522716
  0.5958259251177840  0.3914334797509234  0.2527640065600403
  0.9836205738330407  0.2961029611642693  0.3309840244226184
  0.4733660801311887  0.9022290900813466  0.6965275825961533
  0.3541124392940320  0.9868952118824903  0.2700500368700701
  0.6825181177087332  0.5077623439872067  0.9035893586050388
  0.2750302062219002  0.3562683754533665  0.9521832778567662
  0.8848228196512311  0.7092427103946659  0.4637002930259283
  0.1188024800515459  0.2751045833303812  0.5196934233353731
  0.6457351927838355  0.0093851886397912  0.7313930523604063
  0.5310710953333140  0.1021432032440863  0.2961814831498639
  0.7129527688782776  0.6505403677577194  0.0491445417571817
  0.2853814674114101  0.4943020471317383  0.1185313768842978
  0.0150917319082784  0.7035356707021418  0.6497814456404649
 
             NaN             NaN             NaN
             NaN             NaN             NaN
             NaN             NaN             NaN
             NaN             NaN             NaN
             NaN             NaN             NaN
             NaN             NaN             NaN
             NaN             NaN             NaN
             NaN             NaN             NaN
             NaN             NaN             NaN
             NaN             NaN             NaN
             NaN             NaN             NaN
             NaN             NaN             NaN
             NaN             NaN             NaN
             NaN             NaN             NaN
             NaN             NaN             NaN
             NaN             NaN             NaN
             NaN             NaN             NaN
             NaN             NaN             NaN
             NaN             NaN             NaN
             NaN             NaN             NaN
             NaN             NaN             NaN
             NaN             NaN             NaN
             NaN             NaN             NaN
             NaN             NaN             NaN
             NaN             NaN             NaN
             NaN             NaN             NaN
             NaN             NaN             NaN
             NaN             NaN             NaN
             NaN             NaN             NaN
             NaN             NaN             NaN
             NaN             NaN             NaN
             NaN             NaN             NaN
             NaN             NaN             NaN
             NaN             NaN             NaN
             NaN             NaN             NaN
