Ca1 Co4 S6 O24                          
   1.00000000000000     
     7.4696689999999997    0.2334700000000000    4.6812129999999996
     2.7172139999999998    6.9547920000000003    4.7058819999999999
     0.3437700000000000    0.2137040000000000    8.7959619999999994
   Ca   Co   S    O 
     1     4     6    24
Direct
  0.4349997853988670  0.5744207679195321  0.4947259567928444
  0.6364262217024365  0.6509583961657379  0.6551649424597998
  0.1425709720031664  0.1500464502224111  0.1488780439916438
  0.8509587077089273  0.8525171871393207  0.8412940432292247
  0.3525982976553598  0.3443654785359936  0.3574210130375158
  0.9499375884836611  0.2521924724115345  0.5353449685457086
  0.4586009158533374  0.0413093698564294  0.7486749618779106
  0.5415189686976166  0.9626697853181523  0.2426993595651256
  0.7419257860106270  0.4636199796864177  0.0491284195289162
  0.2387564937305723  0.5421345510312032  0.9620253899412301
  0.0348434074702334  0.7527755204885660  0.4563135343259264
  0.3835744178623227  0.6126012671410578  0.7623501459549684
  0.9380622164579111  0.3124567753765319  0.0263644491018010
  0.7530015121688509  0.3896590316767351  0.6136390208910243
  0.0093845182872852  0.9542277361094679  0.3177288600411259
  0.6223569907678573  0.7610900721623001  0.3764535108574459
  0.3352794761666629  0.0133417064065113  0.9560560907702703
  0.6657027809470494  0.9877395056540529  0.0375312771668331
  0.2328634855530841  0.6184327418156258  0.3717473909655258
  0.0439208542189950  0.6943385678964991  0.9742272929225853
  0.3791688494768816  0.2466307345184632  0.6204159120887596
  0.9689846068428417  0.0485440996621807  0.6751949050839490
  0.6009059326112609  0.4034562649463405  0.2523607355728804
  0.9649574962815813  0.2776246551241067  0.3479476627266415
  0.4638488287327738  0.9059638514075612  0.6978549230341190
  0.3450941984113809  0.9760762610166175  0.2866449423397850
  0.6771691092549001  0.4987289528696310  0.9089715955666343
  0.2529820479932462  0.3626778131912709  0.9710521380413932
  0.8849360750881859  0.6978503249552678  0.4996538416905536
  0.1041702077841450  0.2902795651502795  0.5105285659666374
  0.6596586015731029  0.0068593638094089  0.7085123451853435
  0.5279184395008830  0.1069685455966800  0.2868972791033732
  0.7395947635006097  0.6471370068872193  0.0209794752428051
  0.2898096664426073  0.5055068073097633  0.1120368649153267
  0.0422041285561228  0.7228312668961476  0.6375797181024792
 
             NaN             NaN             NaN
             NaN             NaN             NaN
             NaN             NaN             NaN
             NaN             NaN             NaN
             NaN             NaN             NaN
             NaN             NaN             NaN
             NaN             NaN             NaN
             NaN             NaN             NaN
             NaN             NaN             NaN
             NaN             NaN             NaN
             NaN             NaN             NaN
             NaN             NaN             NaN
             NaN             NaN             NaN
             NaN             NaN             NaN
             NaN             NaN             NaN
             NaN             NaN             NaN
             NaN             NaN             NaN
             NaN             NaN             NaN
             NaN             NaN             NaN
             NaN             NaN             NaN
             NaN             NaN             NaN
             NaN             NaN             NaN
             NaN             NaN             NaN
             NaN             NaN             NaN
             NaN             NaN             NaN
             NaN             NaN             NaN
             NaN             NaN             NaN
             NaN             NaN             NaN
             NaN             NaN             NaN
             NaN             NaN             NaN
             NaN             NaN             NaN
             NaN             NaN             NaN
             NaN             NaN             NaN
             NaN             NaN             NaN
             NaN             NaN             NaN
