Co8 P4                                  
   1.00000000000000     
     5.6726770756404266    0.0000023917671470    0.0000151043445828
    -0.0002390983660370    3.7413066926218845   -0.0000914524180905
     0.0000798511064656   -0.0002862398997395    6.6932244003907737
   Co   P 
     8     4
Direct
  0.3479797419819148  0.2501141331254985  0.4447681861125217
  0.8479780296871831  0.2498765710553960  0.0552408135650674
  0.6521181413758073  0.7501527037522805  0.5552871305464759
  0.1521093248368488  0.7498615105160078  0.9447190394422070
  0.4848767643430633  0.2504845765848202  0.8324247071762563
  0.9848803792332217  0.2496731663103338  0.6675847958833571
  0.5150813627909616  0.7503527293358874  0.1672677402784530
  0.0150922676490699  0.7494759811009128  0.3327365146070386
  0.7402183345415877  0.2497455499080015  0.3785632586200953
  0.2402045603951247  0.2502561024484749  0.1214208948673936
  0.2597372623907608  0.7497768141153085  0.6212116370695295
  0.7597238307744708  0.7502301617470712  0.8787752818316044
 
  0.00000000E+00  0.00000000E+00  0.00000000E+00
  0.00000000E+00  0.00000000E+00  0.00000000E+00
  0.00000000E+00  0.00000000E+00  0.00000000E+00
  0.00000000E+00  0.00000000E+00  0.00000000E+00
  0.00000000E+00  0.00000000E+00  0.00000000E+00
  0.00000000E+00  0.00000000E+00  0.00000000E+00
  0.00000000E+00  0.00000000E+00  0.00000000E+00
  0.00000000E+00  0.00000000E+00  0.00000000E+00
  0.00000000E+00  0.00000000E+00  0.00000000E+00
  0.00000000E+00  0.00000000E+00  0.00000000E+00
  0.00000000E+00  0.00000000E+00  0.00000000E+00
  0.00000000E+00  0.00000000E+00  0.00000000E+00
