Ca2 Mn8 Si10 O30                        
   1.00000000000000     
     7.6890583670067416    0.0058120014592752   -0.5235747831379624
    -3.2348897877725489   11.3646430473781184   -0.4934624806589270
     0.0054833167587579   -0.0025567422570691    6.7186023255476330
   Ca   Mn   Si   O 
     2     8    10    30
Direct
  0.9523887356883449  0.3085468631867201  0.3647039961803458
  0.0476100620904205  0.6914509517516976  0.6352966909523801
  0.1176966648384550  0.1487371207790176  0.0323460966371627
  0.8823050310246146  0.8512611316489611  0.9676531379072202
  0.3182653242244768  0.4441327822505770  0.1235272286921187
  0.6817343757282046  0.5558670833968549  0.8764714099419919
  0.5096501959966986  0.7292141631686277  0.1891056541672569
  0.4903494351953768  0.2707848768912342  0.8108934272814992
  0.7002069739656136  0.0225692695522994  0.2041388498551058
  0.2998031615097219  0.9774267466463940  0.7958636638991479
  0.7815246984922268  0.8747994192988386  0.5032125920590431
  0.2184750905759358  0.1251979255569680  0.4967878195093789
  0.7298282305158708  0.5297919346577871  0.3630626009885276
  0.2701704791519788  0.4702116751540828  0.6369380755952463
  0.5371306534966465  0.2610687531248459  0.2909417814800079
  0.4628690595933520  0.7389343739906948  0.7090606470204435
  0.2549546381379102  0.9106507342652819  0.2470600689418987
  0.7450449809464530  0.0893480303333192  0.7529362909833992
  0.0739185027878193  0.6537797286432223  0.1555107424862356
  0.9260817339033025  0.3462201872368027  0.8444900721782318
  0.1375485012482685  0.7776818507461059  0.3007471650329947
  0.8624519884079476  0.2223174704269795  0.6992539383328946
  0.1572314640676709  0.9597113506279271  0.0596357481147365
  0.8427672551334737  0.0402870275425045  0.9403609135039730
  0.3981518437946505  0.2692120729682586  0.1048302953628877
  0.6018471592305730  0.7307878979660885  0.8951692487476564
  0.6817223165928255  0.3869017705716686  0.3683067548784820
  0.3182688381340526  0.6131022933429620  0.6316984978740550
  0.5997688896897699  0.5641693073906566  0.1909139931564496
  0.4002312750667159  0.4358325777806797  0.8090837902964978
  0.7996165411503284  0.8678236017049628  0.2650880209609952
  0.2003849172313394  0.1321701337423207  0.7349134737115506
  0.9443830239366449  0.5644537761647612  0.3022724683661693
  0.0556157040236371  0.4355464056157601  0.6977272682046802
  0.7440524750858515  0.0043775290702612  0.5527277914802724
  0.2559492100249869  0.9956225791604751  0.4472647435907433
  0.0460140045246291  0.3230569556175737  0.0367344509889165
  0.9539872544122687  0.6769429199977637  0.9632653096564212
  0.6710258089484995  0.1825361166864994  0.2529315627518116
  0.3289794019831973  0.8174724505115663  0.7470748339849820
  0.2577979378085899  0.4120046068348131  0.4177362473734760
  0.7422034075370618  0.5880002949048162  0.5822634659113319
  0.2484334016102849  0.6105250830633651  0.1130651745400044
  0.7515663947533611  0.3894744758387176  0.8869346516341921
  0.0671279727926972  0.1467857620777338  0.3411044534132941
  0.9328685436529582  0.8532112406582328  0.6588968138471287
  0.4495963102603682  0.9001684988389869  0.1947116697074662
  0.5504033980996184  0.0998294176893992  0.8052857434053280
  0.4185299529567885  0.2210491816194846  0.4827080004969844
  0.5814667799775251  0.7789515993044276  0.5172926639169759
 
  0.00000000E+00  0.00000000E+00  0.00000000E+00
  0.00000000E+00  0.00000000E+00  0.00000000E+00
  0.00000000E+00  0.00000000E+00  0.00000000E+00
  0.00000000E+00  0.00000000E+00  0.00000000E+00
  0.00000000E+00  0.00000000E+00  0.00000000E+00
  0.00000000E+00  0.00000000E+00  0.00000000E+00
  0.00000000E+00  0.00000000E+00  0.00000000E+00
  0.00000000E+00  0.00000000E+00  0.00000000E+00
  0.00000000E+00  0.00000000E+00  0.00000000E+00
  0.00000000E+00  0.00000000E+00  0.00000000E+00
  0.00000000E+00  0.00000000E+00  0.00000000E+00
  0.00000000E+00  0.00000000E+00  0.00000000E+00
  0.00000000E+00  0.00000000E+00  0.00000000E+00
  0.00000000E+00  0.00000000E+00  0.00000000E+00
  0.00000000E+00  0.00000000E+00  0.00000000E+00
  0.00000000E+00  0.00000000E+00  0.00000000E+00
  0.00000000E+00  0.00000000E+00  0.00000000E+00
  0.00000000E+00  0.00000000E+00  0.00000000E+00
  0.00000000E+00  0.00000000E+00  0.00000000E+00
  0.00000000E+00  0.00000000E+00  0.00000000E+00
  0.00000000E+00  0.00000000E+00  0.00000000E+00
  0.00000000E+00  0.00000000E+00  0.00000000E+00
  0.00000000E+00  0.00000000E+00  0.00000000E+00
  0.00000000E+00  0.00000000E+00  0.00000000E+00
  0.00000000E+00  0.00000000E+00  0.00000000E+00
  0.00000000E+00  0.00000000E+00  0.00000000E+00
  0.00000000E+00  0.00000000E+00  0.00000000E+00
  0.00000000E+00  0.00000000E+00  0.00000000E+00
  0.00000000E+00  0.00000000E+00  0.00000000E+00
  0.00000000E+00  0.00000000E+00  0.00000000E+00
  0.00000000E+00  0.00000000E+00  0.00000000E+00
  0.00000000E+00  0.00000000E+00  0.00000000E+00
  0.00000000E+00  0.00000000E+00  0.00000000E+00
  0.00000000E+00  0.00000000E+00  0.00000000E+00
  0.00000000E+00  0.00000000E+00  0.00000000E+00
  0.00000000E+00  0.00000000E+00  0.00000000E+00
  0.00000000E+00  0.00000000E+00  0.00000000E+00
  0.00000000E+00  0.00000000E+00  0.00000000E+00
  0.00000000E+00  0.00000000E+00  0.00000000E+00
  0.00000000E+00  0.00000000E+00  0.00000000E+00
  0.00000000E+00  0.00000000E+00  0.00000000E+00
  0.00000000E+00  0.00000000E+00  0.00000000E+00
  0.00000000E+00  0.00000000E+00  0.00000000E+00
  0.00000000E+00  0.00000000E+00  0.00000000E+00
  0.00000000E+00  0.00000000E+00  0.00000000E+00
  0.00000000E+00  0.00000000E+00  0.00000000E+00
  0.00000000E+00  0.00000000E+00  0.00000000E+00
  0.00000000E+00  0.00000000E+00  0.00000000E+00
  0.00000000E+00  0.00000000E+00  0.00000000E+00
  0.00000000E+00  0.00000000E+00  0.00000000E+00
