Co16 Si16 O48                           
   1.00000000000000     
    18.3249678705586412    0.0005615527362079    0.0014348382952391
    -0.0002774422196284    8.7930269867032269   -0.0000477871647118
    -0.0000426369385738   -0.0003171090928086    5.2008418963296483
   Co   Si   O 
    16    16    48
Direct
  0.8761195011642716  0.6558870300908722  0.6356727844421071
  0.3760795718666514  0.8441124083959077  0.3643248978480231
  0.1238662261701818  0.1559661349633438  0.8643737964861657
  0.6238897286922935  0.3440652424385526  0.1356719915858321
  0.1238131880161694  0.3442928945589569  0.3640468752138175
  0.6238814866783633  0.1559157668847322  0.6356671042482325
  0.8761087114861303  0.8440998307887594  0.1356756565820362
  0.3761017024256611  0.6558749403913806  0.8643577710420430
  0.8763215853622370  0.4877402372538515  0.1452896337693748
  0.3763006031645059  0.0122555423544035  0.8547158588545714
  0.1237240612234151  0.9878147761546346  0.3546927643420176
  0.6237144207172575  0.5122502916396330  0.6453511294863371
  0.1237417572541551  0.5122270220108854  0.8546371350067772
  0.6237199863642334  0.9877383290073869  0.1453556890509192
  0.8763354614603137  0.0122554281083617  0.6452959801803381
  0.3763316092135310  0.4877142985200166  0.3547148440462207
  0.7721217666498648  0.3410497705924347  0.4591041710726768
  0.2720480900031760  0.1589507881676214  0.5410242222353654
  0.2278642014357730  0.8411002978115950  0.0409177405206087
  0.7278747852696000  0.6588913756991543  0.9590728372932505
  0.2278445370394912  0.6589026258237074  0.5408786194664782
  0.7278766846385514  0.8410918952848944  0.4590897854592240
  0.7721219869781436  0.1589331052231363  0.9590912495406774
  0.2720905954313200  0.3410418679137424  0.0409803449503605
  0.9722925823812418  0.3362184978911682  0.7090615969576419
  0.4722870483783180  0.1637395015473713  0.2909984798325086
  0.0277291649601923  0.8362095439314170  0.7908594740015805
  0.5277203273859125  0.6637949233512177  0.2091140250977984
  0.0277323811567896  0.6638446490399306  0.2908162976225315
  0.5277153184964789  0.8361912967700729  0.7091189990040727
  0.9723050020813941  0.1637377133625456  0.2089887285644582
  0.4722904516643198  0.3362259902390437  0.7910099134991712
  0.6842710997715348  0.3384998627313143  0.4761975880817153
  0.1841980684096753  0.1616337235230381  0.5240076909367413
  0.3157245883075279  0.8385966968952044  0.0237517469725475
  0.8157350398072974  0.6613743930449349  0.9762716783573417
  0.3157043799462132  0.6613058221003052  0.5237627326288694
  0.8157374930023609  0.8386113130249508  0.4762818865099939
  0.6842717514693265  0.1614825250065026  0.9761994636408299
  0.1842421187758883  0.3385339041617124  0.0237624805338632
  0.0607371530776362  0.3378802067882732  0.7100878497414609
  0.5607383043576792  0.1620982564593682  0.2898570147036090
  0.9392729709852484  0.8378992791076149  0.7898054352790149
  0.4392692290217010  0.6620712205550903  0.2102270608848632
  0.9392787977038953  0.6620939830011233  0.2897688114243330
  0.4392633282675562  0.8379077379026831  0.7102006568211173
  0.0607530864707055  0.1621395265285131  0.2099117550305820
  0.5607412718466623  0.3378800161719776  0.7898606141686069
  0.8101392649049238  0.5048533813396487  0.4593383495330828
  0.3100690298065916  0.9951451816810443  0.5407091809691690
  0.1898663230340207  0.0048932042594674  0.0408321488126490
  0.6898629426972631  0.4951067176194806  0.9591963288778341
  0.1897670531994896  0.4951348818843713  0.5407384875459118
  0.6898637506323372  0.0048772013907540  0.4592168220763944
  0.8101392945235871  0.9951354459248810  0.9593300998285851
  0.3101268961819016  0.5048293995998406  0.0407483775419244
  0.9315516453547821  0.4847096254611563  0.8139832107426175
  0.4315518032943417  0.0152455934256933  0.1860481240060804
  0.0684798851387355  0.9846782520209784  0.6858989145577936
  0.5684836086358520  0.5153250578487059  0.3140797133932376
  0.0684698611754126  0.5153723441606037  0.1856075794130262
  0.5684814472563329  0.9846638977047865  0.8141029527176760
  0.9315796122407186  0.0152453681520436  0.3139711207342578
  0.4315638216881546  0.4847241413201914  0.6860622695895809
  0.8037066476069821  0.2261777543392841  0.6821320929747634
  0.3036474072403677  0.2738135692845077  0.3179652468868929
  0.1963111223121444  0.7261542218161555  0.8179035469834159
  0.6963210929443117  0.7738383036576785  0.1820950102064275
  0.1963037094994381  0.7738417461425408  0.3178956065168795
  0.6963211250893624  0.7261461871593351  0.6820923053358940
  0.8037105524286240  0.2738069050898846  0.1821394837682707
  0.3036770218857499  0.2261560955838682  0.8179626413729240
  0.9464834507732783  0.1963408877426517  0.9064964804512886
  0.4464898290108559  0.3036249980529566  0.0935505607357741
  0.0535380116098450  0.6963455771567357  0.5933502030424499
  0.5535347069438904  0.8036629789879639  0.4065787680282313
  0.0535330846714076  0.8037314812791948  0.0934256542030828
  0.5535307931298681  0.6963273037785652  0.9065695656229471
  0.9465021463845713  0.3036088436909249  0.4065075473943901
  0.4464898522740043  0.1963409692307952  0.5935467431178336
 
  0.00000000E+00  0.00000000E+00  0.00000000E+00
  0.00000000E+00  0.00000000E+00  0.00000000E+00
  0.00000000E+00  0.00000000E+00  0.00000000E+00
  0.00000000E+00  0.00000000E+00  0.00000000E+00
  0.00000000E+00  0.00000000E+00  0.00000000E+00
  0.00000000E+00  0.00000000E+00  0.00000000E+00
  0.00000000E+00  0.00000000E+00  0.00000000E+00
  0.00000000E+00  0.00000000E+00  0.00000000E+00
  0.00000000E+00  0.00000000E+00  0.00000000E+00
  0.00000000E+00  0.00000000E+00  0.00000000E+00
  0.00000000E+00  0.00000000E+00  0.00000000E+00
  0.00000000E+00  0.00000000E+00  0.00000000E+00
  0.00000000E+00  0.00000000E+00  0.00000000E+00
  0.00000000E+00  0.00000000E+00  0.00000000E+00
  0.00000000E+00  0.00000000E+00  0.00000000E+00
  0.00000000E+00  0.00000000E+00  0.00000000E+00
  0.00000000E+00  0.00000000E+00  0.00000000E+00
  0.00000000E+00  0.00000000E+00  0.00000000E+00
  0.00000000E+00  0.00000000E+00  0.00000000E+00
  0.00000000E+00  0.00000000E+00  0.00000000E+00
  0.00000000E+00  0.00000000E+00  0.00000000E+00
  0.00000000E+00  0.00000000E+00  0.00000000E+00
  0.00000000E+00  0.00000000E+00  0.00000000E+00
  0.00000000E+00  0.00000000E+00  0.00000000E+00
  0.00000000E+00  0.00000000E+00  0.00000000E+00
  0.00000000E+00  0.00000000E+00  0.00000000E+00
  0.00000000E+00  0.00000000E+00  0.00000000E+00
  0.00000000E+00  0.00000000E+00  0.00000000E+00
  0.00000000E+00  0.00000000E+00  0.00000000E+00
  0.00000000E+00  0.00000000E+00  0.00000000E+00
  0.00000000E+00  0.00000000E+00  0.00000000E+00
  0.00000000E+00  0.00000000E+00  0.00000000E+00
  0.00000000E+00  0.00000000E+00  0.00000000E+00
  0.00000000E+00  0.00000000E+00  0.00000000E+00
  0.00000000E+00  0.00000000E+00  0.00000000E+00
  0.00000000E+00  0.00000000E+00  0.00000000E+00
  0.00000000E+00  0.00000000E+00  0.00000000E+00
  0.00000000E+00  0.00000000E+00  0.00000000E+00
  0.00000000E+00  0.00000000E+00  0.00000000E+00
  0.00000000E+00  0.00000000E+00  0.00000000E+00
  0.00000000E+00  0.00000000E+00  0.00000000E+00
  0.00000000E+00  0.00000000E+00  0.00000000E+00
  0.00000000E+00  0.00000000E+00  0.00000000E+00
  0.00000000E+00  0.00000000E+00  0.00000000E+00
  0.00000000E+00  0.00000000E+00  0.00000000E+00
  0.00000000E+00  0.00000000E+00  0.00000000E+00
  0.00000000E+00  0.00000000E+00  0.00000000E+00
  0.00000000E+00  0.00000000E+00  0.00000000E+00
  0.00000000E+00  0.00000000E+00  0.00000000E+00
  0.00000000E+00  0.00000000E+00  0.00000000E+00
  0.00000000E+00  0.00000000E+00  0.00000000E+00
  0.00000000E+00  0.00000000E+00  0.00000000E+00
  0.00000000E+00  0.00000000E+00  0.00000000E+00
  0.00000000E+00  0.00000000E+00  0.00000000E+00
  0.00000000E+00  0.00000000E+00  0.00000000E+00
  0.00000000E+00  0.00000000E+00  0.00000000E+00
  0.00000000E+00  0.00000000E+00  0.00000000E+00
  0.00000000E+00  0.00000000E+00  0.00000000E+00
  0.00000000E+00  0.00000000E+00  0.00000000E+00
  0.00000000E+00  0.00000000E+00  0.00000000E+00
  0.00000000E+00  0.00000000E+00  0.00000000E+00
  0.00000000E+00  0.00000000E+00  0.00000000E+00
  0.00000000E+00  0.00000000E+00  0.00000000E+00
  0.00000000E+00  0.00000000E+00  0.00000000E+00
  0.00000000E+00  0.00000000E+00  0.00000000E+00
  0.00000000E+00  0.00000000E+00  0.00000000E+00
  0.00000000E+00  0.00000000E+00  0.00000000E+00
  0.00000000E+00  0.00000000E+00  0.00000000E+00
  0.00000000E+00  0.00000000E+00  0.00000000E+00
  0.00000000E+00  0.00000000E+00  0.00000000E+00
  0.00000000E+00  0.00000000E+00  0.00000000E+00
  0.00000000E+00  0.00000000E+00  0.00000000E+00
  0.00000000E+00  0.00000000E+00  0.00000000E+00
  0.00000000E+00  0.00000000E+00  0.00000000E+00
  0.00000000E+00  0.00000000E+00  0.00000000E+00
  0.00000000E+00  0.00000000E+00  0.00000000E+00
  0.00000000E+00  0.00000000E+00  0.00000000E+00
  0.00000000E+00  0.00000000E+00  0.00000000E+00
  0.00000000E+00  0.00000000E+00  0.00000000E+00
  0.00000000E+00  0.00000000E+00  0.00000000E+00
