Ni4 P12                                 
   1.00000000000000     
     3.9202732512611518    3.9201325861281999    3.9198535554102136
     3.9202709241789870   -3.9198258814619984   -3.9201579561437789
    -3.9199666105487752    3.9201461759746707   -3.9201738548250753
   Ni   P 
     4    12
Direct
  0.0000082411141113  0.5000076713665957  0.9999961468980563
  0.5000120405916390  0.5000087264703128  0.5000002431607891
  0.0000073731866165  0.0000111270657218  0.4999997156301351
  0.5000106433465923  0.0000113875376109  0.0000027874108415
  0.8601656036633056  0.5033852489424617  0.6432153678361855
  0.1398369510409616  0.4966217449824069  0.3567884327006197
  0.1398329799856040  0.7830472142249806  0.6432111966857310
  0.8601693714978763  0.2169513979432122  0.3567841367667156
  0.2169423155627435  0.3567842592135485  0.8601582596250703
  0.7830519129779382  0.6432127683382327  0.1398377986223512
  0.4966275994053696  0.3567842527837869  0.1398436447445638
  0.5033724465845665  0.6432141513328047  0.8601579503109330
  0.3567748768144475  0.1398331941621134  0.4966259827268941
  0.6432061803769580  0.8601469912538890  0.5033756612738994
  0.3567745571773331  0.8601510356471411  0.2169434835537518
  0.6432069066739300  0.1398288287351812  0.7830591920534626
 
  0.00000000E+00  0.00000000E+00  0.00000000E+00
  0.00000000E+00  0.00000000E+00  0.00000000E+00
  0.00000000E+00  0.00000000E+00  0.00000000E+00
  0.00000000E+00  0.00000000E+00  0.00000000E+00
  0.00000000E+00  0.00000000E+00  0.00000000E+00
  0.00000000E+00  0.00000000E+00  0.00000000E+00
  0.00000000E+00  0.00000000E+00  0.00000000E+00
  0.00000000E+00  0.00000000E+00  0.00000000E+00
  0.00000000E+00  0.00000000E+00  0.00000000E+00
  0.00000000E+00  0.00000000E+00  0.00000000E+00
  0.00000000E+00  0.00000000E+00  0.00000000E+00
  0.00000000E+00  0.00000000E+00  0.00000000E+00
  0.00000000E+00  0.00000000E+00  0.00000000E+00
  0.00000000E+00  0.00000000E+00  0.00000000E+00
  0.00000000E+00  0.00000000E+00  0.00000000E+00
  0.00000000E+00  0.00000000E+00  0.00000000E+00
