Ca2 Ti1 Si1 O6                          
   1.00000000000000     
    -3.7183058104473918   -3.7183031298040055   -0.0000126274755831
    -3.7183057541249904   -0.0000126838078618   -3.7183372171811526
    -0.0000126537970244   -3.7183031034593146   -3.7183372470144493
   Ca   Ti   Si   O 
     2     1     1     6
Direct
  0.2499998313424783  0.2499998383076019  0.2499997798395341
  0.7500002044414913  0.7500002200163678  0.7500001732755379
  0.4999975070775449  0.4999974890750991  0.5000024979893638
  0.9999996352097398  0.9999996375311753  0.0000003618380333
  0.7613546959019928  0.2386461912459552  0.2386460264214350
  0.7613508459741141  0.2386482000592096  0.7613510798447649
  0.7613526111719580  0.7613526055665716  0.2386466720779694
  0.2386454593747587  0.7613539637754556  0.7613538196313243
  0.2386489247435293  0.7613515640966426  0.2386491566127944
  0.2386502847623930  0.2386502903259284  0.7613504324692428
 
  0.00000000E+00  0.00000000E+00  0.00000000E+00
  0.00000000E+00  0.00000000E+00  0.00000000E+00
  0.00000000E+00  0.00000000E+00  0.00000000E+00
  0.00000000E+00  0.00000000E+00  0.00000000E+00
  0.00000000E+00  0.00000000E+00  0.00000000E+00
  0.00000000E+00  0.00000000E+00  0.00000000E+00
  0.00000000E+00  0.00000000E+00  0.00000000E+00
  0.00000000E+00  0.00000000E+00  0.00000000E+00
  0.00000000E+00  0.00000000E+00  0.00000000E+00
  0.00000000E+00  0.00000000E+00  0.00000000E+00
