Ca1 Ni4 S6 O24
1.0
7.665917 0.268414 4.097756
2.759166 7.003636 4.372660
0.650398 0.210149 8.708687
Ca Ni S O
1 4 6 24
direct
0.311776 0.781311 0.575823 Ca
0.650879 0.648269 0.644519 Ni
0.137120 0.148079 0.145116 Ni
0.847719 0.841732 0.849472 Ni
0.357669 0.348552 0.350610 Ni
0.956276 0.248990 0.531309 S
0.447672 0.036747 0.749755 S
0.547494 0.964539 0.237705 S
0.746735 0.452535 0.047918 S
0.248426 0.535028 0.955476 S
0.038487 0.749638 0.455661 S
0.405112 0.576326 0.767299 O
0.913691 0.276494 0.062417 O
0.805435 0.419599 0.565335 O
0.082440 0.906226 0.284532 O
0.587502 0.776945 0.398620 O
0.288940 1.054933 0.925429 O
0.695394 0.950195 0.057265 O
0.180656 0.570229 0.438726 O
0.074058 0.708348 0.939174 O
0.416667 0.224062 0.592171 O
0.934062 0.074306 0.699587 O
0.585229 0.428142 0.229590 O
0.956729 0.242194 0.367535 O
0.452851 0.889125 0.710637 O
0.355435 0.995122 0.252338 O
0.700839 0.489265 0.891040 O
0.226319 0.369760 0.980171 O
0.852120 0.764464 0.492643 O
0.143119 0.238412 0.498067 O
0.628372 -0.014076 0.762674 O
0.537462 0.117203 0.269655 O
0.783965 0.609727 0.018404 O
0.289359 0.506125 0.110851 O
0.041564 0.758500 0.619428 O
