Ca2 Ni4 S6 O24                          
   1.00000000000000     
     7.5220700000000003    0.1250120000000000    4.4350370000000003
     2.5927810000000000    7.0542920000000002    4.4266850000000000
     0.1442220000000000    0.1227110000000000    8.7327580000000005
   Ca   Ni   S    O 
     2     4     6    24
Direct
  0.4681926346311907  0.5495424008100048  0.4907335416154046
  0.9903146859546162  0.0199451796523660 -0.0142411542565272
  0.6453978837582849  0.6425724780964274  0.6605192915067609
  0.1497586815293696  0.1450120292888950  0.1468767429866052
  0.8449107804072842  0.8589191221110333  0.8449462045305158
  0.3437221338064860  0.3565554329468889  0.3499562698162966
  0.9469264320316316  0.2564392325700599  0.5427536937842496
  0.4496318667121856  0.0465162695179974  0.7531067884769768
  0.5396541995433879  0.9599829773349943  0.2462796732097950
  0.7468486814366150  0.4518908652264529  0.0457198440014933
  0.2402516051802010  0.5534628036166486  0.9580885799175234
  0.0378929867220158  0.7550382985290428  0.4510492275246348
  0.4204520559776749  0.5445105378681977  0.7885261706597744
  0.8894133305561081  0.2609631212872125  0.1085529799355583
  0.7758275053995192  0.4357538047591263  0.5318792599277666
  0.0849868989934867  0.8973311688880755  0.2560267305859618
  0.5350422522403245  0.8101136477287136  0.4377430392779218
  0.2530147620219093  0.1098848316382852  0.8900105870176656
  0.7336914433116025  0.9015616656937817  0.1067602659298168
  0.2076175699432402  0.5740254021626858  0.4577430709199827
  0.0959615777010367  0.7458137405584099  0.8999546096703367
  0.4612547122520524  0.2008891401986724  0.5639440993427849
  0.8929442984922733  0.1115923541000696  0.7353685675059153
  0.5657216352908776  0.4702005140441226  0.2118818908439967
  0.9978932212564259  0.1911336337933703  0.3955309460558135
  0.4735241380216882  0.8670749568932181  0.7544844994528153
  0.3963480793267631  0.9606636396155234  0.2051057642972605
  0.7246015068375663  0.4500192970611531  0.8912645662802909
  0.1826337658535697  0.4024729570416888  1.0023655982938178
  0.8723808775482051  0.7264386422507673  0.4846435943249187
  0.1034925437671501  0.2855910881534170  0.5312047470994082
  0.5902656921906556  1.0243028309727664  0.8119108379988794
  0.5040419371576524  0.1457163439259462  0.2392565483004427
  0.8096293230647476  0.6046530684008468 -0.0141249875541995
  0.2639777598428851  0.5421464970867212  0.1171760480340330
  0.0118251382992632  0.8173910691122586  0.5910479508274116
 
             NaN             NaN             NaN
             NaN             NaN             NaN
             NaN             NaN             NaN
             NaN             NaN             NaN
             NaN             NaN             NaN
             NaN             NaN             NaN
             NaN             NaN             NaN
             NaN             NaN             NaN
             NaN             NaN             NaN
             NaN             NaN             NaN
             NaN             NaN             NaN
             NaN             NaN             NaN
             NaN             NaN             NaN
             NaN             NaN             NaN
             NaN             NaN             NaN
             NaN             NaN             NaN
             NaN             NaN             NaN
             NaN             NaN             NaN
             NaN             NaN             NaN
             NaN             NaN             NaN
             NaN             NaN             NaN
             NaN             NaN             NaN
             NaN             NaN             NaN
             NaN             NaN             NaN
             NaN             NaN             NaN
             NaN             NaN             NaN
             NaN             NaN             NaN
             NaN             NaN             NaN
             NaN             NaN             NaN
             NaN             NaN             NaN
             NaN             NaN             NaN
             NaN             NaN             NaN
             NaN             NaN             NaN
             NaN             NaN             NaN
             NaN             NaN             NaN
             NaN             NaN             NaN
