Ca2 Ni4 S6 O24
1.0
7.522070 0.125012 4.435037
2.592781 7.054292 4.426685
0.144222 0.122711 8.732758
Ca Ni S O
2 4 6 24
direct
0.436747 0.589910 0.519889 Ca
0.988485 1.002055 1.003075 Ca
0.647274 0.645867 0.647011 Ni
0.143228 0.147219 0.144525 Ni
0.846562 0.848568 0.848260 Ni
0.353689 0.349001 0.349395 Ni
0.956983 0.248293 0.539897 S
0.447000 0.041761 0.748638 S
0.546712 0.955218 0.244049 S
0.745867 0.453065 0.044742 S
0.248719 0.541565 0.953504 S
0.040584 0.748099 0.452980 S
0.412276 0.561900 0.771120 O
0.901448 0.264995 0.077935 O
0.787129 0.418090 0.554579 O
0.074611 0.902958 0.266595 O
0.566288 0.774878 0.409674 O
0.260491 0.073874 0.905081 O
0.726940 0.926496 0.082638 O
0.209721 0.576897 0.441990 O
0.087607 0.728698 0.926664 O
0.438610 0.219038 0.582210 O
0.927261 0.089419 0.726066 O
0.577948 0.444324 0.220254 O
0.982123 0.199398 0.391256 O
0.470490 0.888394 0.705918 O
0.387330 0.989646 0.204781 O
0.707269 0.478707 0.888574 O
0.199394 0.390653 0.984258 O
0.877267 0.721265 0.484408 O
0.120921 0.275103 0.509185 O
0.597071 -0.000688 0.805782 O
0.525085 0.109778 0.281475 O
0.802675 0.600649 0.009186 O
0.291768 0.512083 0.108001 O
0.016349 0.796706 0.602526 O
