Ca2 V4 S6 O24
1.0
7.673683 0.184480 4.589195
2.656504 7.158992 4.581062
0.118807 0.177112 8.983452
Ca V S O
2 4 6 24
direct
0.259025 0.869440 0.587636 Ca
0.951650 1.031266 1.013522 Ca
0.651066 0.638620 0.659333 V
0.141379 0.146990 0.144299 V
0.841661 0.852361 0.837720 V
0.367095 0.350980 0.344364 V
0.972505 0.246888 0.534251 S
0.426034 0.036459 0.755796 S
0.562522 0.961710 0.236952 S
0.745761 0.447733 0.043958 S
0.245232 0.547668 0.955759 S
0.035260 0.751747 0.453967 S
0.409129 0.559601 0.779732 O
0.879498 0.255596 0.119461 O
0.847500 0.436796 0.528739 O
0.090387 0.887541 0.261041 O
0.572966 0.799451 0.413343 O
0.235408 0.097907 0.893144 O
0.727616 0.905303 0.083299 O
0.161705 0.559254 0.466198 O
0.092872 0.742129 0.908660 O
0.452849 0.192526 0.580128 O
0.916660 0.101488 0.725095 O
0.566553 0.484558 0.191814 O
0.979742 0.198089 0.399552 O
0.428835 0.881392 0.731115 O
0.383823 1.007243 0.226800 O
0.730842 0.433400 0.895298 O
0.187626 0.402743 0.997311 O
0.840484 0.779042 0.506764 O
0.167665 0.209743 0.505460 O
0.567860 -0.035800 0.834840 O
0.572460 0.122552 0.234089 O
0.826399 0.588191 -0.032647 O
0.278847 0.526623 0.107535 O
0.045464 0.800992 0.582853 O
