Cr6 P4 O16
1.0
4.963856 0.000000 -0.119754
0.000000 9.495100 0.000000
0.000000 0.000000 6.483900
Cr P O
6 4 16
direct
0.449450 0.123000 0.651940 Cr2+
0.949450 0.377000 0.151940 Cr2+
0.550550 0.877000 0.348060 Cr2+
0.050550 0.623000 0.848060 Cr2+
0.500000 0.500000 0.500000 Cr2+
0.000000 0.000000 0.000000 Cr2+
0.842700 0.318530 0.348070 P5+
0.342700 0.181470 0.848070 P5+
0.157300 0.681470 0.651930 P5+
0.657300 0.818530 0.151930 P5+
0.185600 0.324200 0.382900 O2-
0.685600 0.175800 0.882900 O2-
0.814400 0.675800 0.617100 O2-
0.314400 0.824200 0.117100 O2-
0.882900 0.383400 0.538500 O2-
0.382900 0.116600 0.038500 O2-
0.117100 0.616600 0.461500 O2-
0.617100 0.883400 0.961500 O2-
0.596800 0.415300 0.161700 O2-
0.096800 0.084700 0.661700 O2-
0.403200 0.584700 0.838300 O2-
0.903200 0.915300 0.338300 O2-
0.722400 0.168900 0.315900 O2-
0.222400 0.331100 0.815900 O2-
0.277600 0.831100 0.684100 O2-
0.777600 0.668900 0.184100 O2-
