Ca2 Mn4 S6 O24
1.0
7.835974 0.158633 4.445320
2.714485 7.351031 4.471745
0.113540 0.114767 8.853479
Ca Mn S O
2 4 6 24
direct
0.247788 0.869794 0.578498 Ca
0.976106 0.998117 1.018649 Ca
0.654377 0.630429 0.647081 Mn
0.143080 0.167045 0.131122 Mn
0.820437 0.839135 0.854509 Mn
0.366297 0.364949 0.352281 Mn
0.972071 0.250498 0.541712 S
0.420772 0.028924 0.752725 S
0.555116 0.964357 0.237227 S
0.749066 0.443976 0.048553 S
0.249256 0.555665 0.950080 S
0.041157 0.753159 0.452536 S
0.399527 0.574310 0.768652 O
0.893462 0.256245 0.085097 O
0.799425 0.403259 0.551417 O
0.067143 0.902493 0.271229 O
0.571388 0.793561 0.399541 O
0.242721 0.071913 0.903493 O
0.721621 0.931873 0.074891 O
0.208111 0.592127 0.450071 O
0.092461 0.737814 0.915103 O
0.439324 0.195730 0.598677 O
0.958873 0.091315 0.722897 O
0.589590 0.451302 0.214789 O
1.022007 0.173672 0.403433 O
0.418291 0.899971 0.697516 O
0.388198 1.004639 0.209894 O
0.705440 0.473453 0.894470 O
0.198491 0.406352 0.995049 O
0.880599 0.719279 0.495624 O
0.124358 0.294892 0.504272 O
0.571423 -0.065122 0.827299 O
0.543043 0.114817 0.267872 O
0.827369 0.575733 -0.001235 O
0.294996 0.535195 0.096378 O
0.009168 0.817537 0.595988 O
