V4 P2 O10                               
   1.00000000000000     
    -3.2440030373217317   -3.8149909447238697    2.0081954828609265
    -3.2440040803113188    3.8149928512446438    2.0081963620124834
    -0.0202902509276332   -0.0000016748591733   -7.2819912377749603
   V    P    O 
     4     2    10
Direct
  0.9955872753507435  0.4992039302242972  0.4987305484293429
  0.4992048461615894  0.9955889283320545  0.9987311692545333
  0.5047540885296087  0.4995069797578964  0.4995376921485359
  0.4995072386081745  0.5047538348378708  0.9995372556994369
  0.1258467441707722  0.8757883418700985  0.2518956491580582
  0.8757888561261353  0.1258465857780280  0.7518941580663565
  0.8208584351394350  0.8084980329084459  0.1178480090812926
  0.1930411972495634  0.1806581201851927  0.3848241702865636
  0.1806593246989650  0.1930393561543227  0.8848184771970082
  0.8084940236929938  0.8208581128914290  0.6178451149333881
  0.1935683357026434  0.7048690674313747  0.3856170503593361
  0.2940727028857282  0.8078259737364704  0.1156460348076180
  0.8078244360966309  0.2940735129105860  0.6156454283702288
  0.7048734449021978  0.1935695146264536  0.8856189296128534
  0.6220583944668689  0.3738597608449723  0.2459048513848856
  0.3738606562179498  0.6220599475105075  0.7459054612105618
 
  0.00000000E+00  0.00000000E+00  0.00000000E+00
  0.00000000E+00  0.00000000E+00  0.00000000E+00
  0.00000000E+00  0.00000000E+00  0.00000000E+00
  0.00000000E+00  0.00000000E+00  0.00000000E+00
  0.00000000E+00  0.00000000E+00  0.00000000E+00
  0.00000000E+00  0.00000000E+00  0.00000000E+00
  0.00000000E+00  0.00000000E+00  0.00000000E+00
  0.00000000E+00  0.00000000E+00  0.00000000E+00
  0.00000000E+00  0.00000000E+00  0.00000000E+00
  0.00000000E+00  0.00000000E+00  0.00000000E+00
  0.00000000E+00  0.00000000E+00  0.00000000E+00
  0.00000000E+00  0.00000000E+00  0.00000000E+00
  0.00000000E+00  0.00000000E+00  0.00000000E+00
  0.00000000E+00  0.00000000E+00  0.00000000E+00
  0.00000000E+00  0.00000000E+00  0.00000000E+00
  0.00000000E+00  0.00000000E+00  0.00000000E+00
