Fe6 P4 O16                              
   1.00000000000000     
     6.0346303002327986   -0.0000001192785217   -0.0915082180589968
    -0.0000000945526566    4.7858122787668380   -0.0000001080754858
     0.0126398070302336   -0.0000002211686503   10.4181770304357624
   Fe   P    O 
     6     4    16
Direct
  0.4999757139069487  0.4999673536865572  0.5000060614638642
  0.4999757125607900  0.0000326448085133  0.0000060628170857
  0.2372001021310908  0.5171158365097313  0.7822940575663324
  0.7628519473984525  0.0171520081108270  0.7176968599615847
  0.7628520276252289  0.4828479408434063  0.2176967312993554
  0.2372001614047292  0.9828842249029250  0.2822939433051417
  0.2602671011055477  0.0659859846744268  0.6005124692619077
  0.7397220983097981  0.5659611234380932  0.8994874787760381
  0.7397220983016837  0.9340388713317083  0.3994874764435679
  0.2602671046476175  0.4340140182288934  0.1005124670384845
  0.2793259511767232  0.7475384220080912  0.6035318552539266
  0.7206646676677764  0.2474938694808202  0.8964588443703718
  0.7206646701314412  0.2525061368184893  0.3964588423301763
  0.2793259533145047  0.7524615716459309  0.1035318540928500
  0.2530933166910856  0.3190386295772640  0.9632273427235418
  0.7468941964892508  0.8191178686175533  0.5367769968998246
  0.7468942105522416  0.6808821487911842  0.0367769935962770
  0.2530933308255996  0.1809613489174566  0.4632273394350293
  0.0695089686569403  0.1741009808246048  0.6821198532273200
  0.9304788507193251  0.6741180244156126  0.8179129632239039
  0.9304788535493671  0.8258819779763087  0.3179129525273510
  0.0695089734733401  0.3258990164883784  0.1821198438033775
  0.4693396718201583  0.2118097963409014  0.6628505945865513
  0.5306773293480092  0.7118192793922518  0.8371247973957665
  0.5306773216362970  0.7881807261969769  0.3371247603353567
  0.4693396665560527  0.2881901959730868  0.1628505582650135
 
  0.00000000E+00  0.00000000E+00  0.00000000E+00
  0.00000000E+00  0.00000000E+00  0.00000000E+00
  0.00000000E+00  0.00000000E+00  0.00000000E+00
  0.00000000E+00  0.00000000E+00  0.00000000E+00
  0.00000000E+00  0.00000000E+00  0.00000000E+00
  0.00000000E+00  0.00000000E+00  0.00000000E+00
  0.00000000E+00  0.00000000E+00  0.00000000E+00
  0.00000000E+00  0.00000000E+00  0.00000000E+00
  0.00000000E+00  0.00000000E+00  0.00000000E+00
  0.00000000E+00  0.00000000E+00  0.00000000E+00
  0.00000000E+00  0.00000000E+00  0.00000000E+00
  0.00000000E+00  0.00000000E+00  0.00000000E+00
  0.00000000E+00  0.00000000E+00  0.00000000E+00
  0.00000000E+00  0.00000000E+00  0.00000000E+00
  0.00000000E+00  0.00000000E+00  0.00000000E+00
  0.00000000E+00  0.00000000E+00  0.00000000E+00
  0.00000000E+00  0.00000000E+00  0.00000000E+00
  0.00000000E+00  0.00000000E+00  0.00000000E+00
  0.00000000E+00  0.00000000E+00  0.00000000E+00
  0.00000000E+00  0.00000000E+00  0.00000000E+00
  0.00000000E+00  0.00000000E+00  0.00000000E+00
  0.00000000E+00  0.00000000E+00  0.00000000E+00
  0.00000000E+00  0.00000000E+00  0.00000000E+00
  0.00000000E+00  0.00000000E+00  0.00000000E+00
  0.00000000E+00  0.00000000E+00  0.00000000E+00
  0.00000000E+00  0.00000000E+00  0.00000000E+00
