Fe6 P4 O16
1.0
6.012884 0.000000 -0.099077
0.000000 4.772700 0.000000
0.000000 0.000000 10.405200
Fe P O
6 4 16
direct
0.500000 0.500000 0.500000 Fe2+
0.500000 0.000000 0.000000 Fe2+
0.237500 0.515200 0.782100 Fe2+
0.762500 0.015200 0.717900 Fe2+
0.762500 0.484800 0.217900 Fe2+
0.237500 0.984800 0.282100 Fe2+
0.260200 0.067300 0.600500 P5+
0.739800 0.567300 0.899500 P5+
0.739800 0.932700 0.399500 P5+
0.260200 0.432700 0.100500 P5+
0.277800 0.745300 0.604200 O2-
0.722200 0.245300 0.895800 O2-
0.722200 0.254700 0.395800 O2-
0.277800 0.754700 0.104200 O2-
0.253300 0.319000 0.963800 O2-
0.746700 0.819000 0.536200 O2-
0.746700 0.681000 0.036200 O2-
0.253300 0.181000 0.463800 O2-
0.071600 0.175500 0.682000 O2-
0.928400 0.675500 0.818000 O2-
0.928400 0.824500 0.318000 O2-
0.071600 0.324500 0.182000 O2-
0.468000 0.214800 0.662700 O2-
0.532000 0.714800 0.837300 O2-
0.532000 0.785200 0.337300 O2-
0.468000 0.285200 0.162700 O2-
