Ca1 Fe4 S6 O24                          
   1.00000000000000     
     7.5596790000000000    0.2200500000000000    4.6003400000000001
     2.6966260000000002    7.0568249999999999    4.6042300000000003
     0.3247510000000000    0.2335260000000000    8.8478429999999992
   Ca   Fe   S    O 
     1     4     6    24
Direct
  0.3727964070489483  0.6265086060641188  0.5199479153705390
  0.6566117042459201  0.6374751402788863  0.6538214336931089
  0.1455704905288457  0.1524484830940727  0.1400069488530935
  0.8400732835951676  0.8567354491593357  0.8473522564464369
  0.3498583237678493  0.3486802119665182  0.3591353653895571
  0.9648238504357881  0.2432728939324699  0.5329354333771371
  0.4549338017987605  0.0521889728803330  0.7483119581334311
  0.5412011483030309  0.9538991582543395  0.2520665083263101
  0.7367390088501388  0.4686586555861937  0.0504305706648359
  0.2497393969010664  0.5302813097838472  0.9630433917922420
  0.0273340392573464  0.7583227824664572  0.4428646468932577
  0.3947719344042510  0.6074886435405217  0.7754689300347541
  0.9356189966634997  0.3363439701284042  0.0267451803588138
  0.7723159381512963  0.3723811337478482  0.6148822648714827
  0.0012043387240878  0.9591598720449456  0.3159791743424883
  0.5983635787716406  0.7602261896673166  0.4015289131669066
  0.3085237404649147  0.0244537208649191  0.9435794969625860
  0.6908003458417319  0.9612069418072710  0.0631085604223848
  0.2291269289967328  0.6318464753948867  0.3666444124602197
  0.0594504490874658  0.6687110976871558  0.9553737887539969
  0.3775687534896216  0.2494570152032852  0.6160604142878273
  0.9874062298223993  0.0386429191469616  0.6558779811263503
  0.6017781401637029  0.3955012528570072  0.2450367530530694
  0.9905947766719763  0.2780369109876171  0.3392632020227874
  0.5043289118861477  0.9044054772480472  0.6853524081488138
  0.3589626898399569  0.9636177221835676  0.2677767843079673
  0.6867833958682079  0.4901975280840659  0.9048240243453951
  0.2860421202021624  0.3443336254763334  0.9677414924317786
  0.8957683776509724  0.6968001907491067  0.4597692566086466
  0.1130201044055190  0.2808501653804843  0.5221576086910991
  0.6277822915694679  0.0435857272976382  0.7438795360440735
  0.5082049808298595  0.1052072581492305  0.2983312733068773
  0.7122345226551892  0.6589238754091300  0.0262526634748208
  0.2772825374118870  0.5074027374585837  0.1222550562631335
  0.0080448385052386  0.7263619106496673  0.6355501582847439
 
             NaN             NaN             NaN
             NaN             NaN             NaN
             NaN             NaN             NaN
             NaN             NaN             NaN
             NaN             NaN             NaN
             NaN             NaN             NaN
             NaN             NaN             NaN
             NaN             NaN             NaN
             NaN             NaN             NaN
             NaN             NaN             NaN
             NaN             NaN             NaN
             NaN             NaN             NaN
             NaN             NaN             NaN
             NaN             NaN             NaN
             NaN             NaN             NaN
             NaN             NaN             NaN
             NaN             NaN             NaN
             NaN             NaN             NaN
             NaN             NaN             NaN
             NaN             NaN             NaN
             NaN             NaN             NaN
             NaN             NaN             NaN
             NaN             NaN             NaN
             NaN             NaN             NaN
             NaN             NaN             NaN
             NaN             NaN             NaN
             NaN             NaN             NaN
             NaN             NaN             NaN
             NaN             NaN             NaN
             NaN             NaN             NaN
             NaN             NaN             NaN
             NaN             NaN             NaN
             NaN             NaN             NaN
             NaN             NaN             NaN
             NaN             NaN             NaN
