Ca5 V4 P6 O24                           
   1.00000000000000     
     2.5446006766752052    7.3951359248819433    4.3625222382523692
    -0.0561404559032200    0.0359665060684752    8.8389409999198509
     7.7251969349516747    0.0371653397374185    4.2958165992407213
   Ca   V    P    O 
     5     4     6    24
Direct
  0.5407862037932532  0.4665922995375468  0.4930025726699508
  0.9548923406837108  0.0026757889996402  0.0299381795654383
  0.3978802284017470  0.7456743710144951  0.0847057812609018
  0.0968656406910980  0.4117589247509784  0.7501563474422206
  0.2476180422266752  0.9034796835937207  0.5924641071334936
  0.6499826062993852  0.6437652255156567  0.6352152817675090
  0.1446712735333404  0.1482010051296138  0.1470793175253007
  0.8456045864145019  0.8612680348134059  0.8520257834467850
  0.3511339192865515  0.3490558691797294  0.3480166893921667
  0.2480560369515753  0.5570350760889651  0.9388139490152260
  0.0578028289765898  0.7497933034198120  0.4502930171588797
  0.9626078525985150  0.2500559432114129  0.5574918093350513
  0.4379035436007179  0.0455869867949427  0.7463535271733276
  0.5335409461682019  0.9382672354333621  0.2459478324462772
  0.7481657938101621  0.4533051927954303  0.0426401356550086
  0.5591761119003608  0.7549736304235428  0.4048961874404503
  0.2480994467645714  0.0738211932842543  0.9034542252852716
  0.3997019523434921  0.5791944719627148  0.7477808966396683
  0.9108993557869197  0.2737408626344370  0.0590115325232642
  0.7844225272437397  0.4050947902045693  0.5525635012803328
  0.0741488337276099  0.8993250665580129  0.2617843021229680
  0.9369374734306471  0.0910992907670273  0.7407665955836876
  0.5846428409181443  0.4383478238706623  0.2216874639753110
  0.7117269061443544  0.9429517347072366  0.0908310791898709
  0.2474212383413834  0.5925318281979803  0.4223209961183156
  0.0964367198381596  0.7481607996216846  0.9167221142719847
  0.4219757010624798  0.2340116987210641  0.5966638726729983
  0.1889691268005790  0.4059957257423574  0.9704361216967905
  0.9067332625411811  0.6801673461837831  0.5161598592958185
  0.0451529546721871  0.1696991469072413  0.4053647313808407
  0.4522326313610630  0.8928494072840346  0.6981291778140842
  0.3908865215049174  0.9434877006597274  0.1924375797379927
  0.7015310713146823  0.4863666255808156  0.8838636360472911
  0.3072469209004382  0.5251967275643130  0.0898241920135701
  0.0435465585751510  0.7980501395031756  0.6029009750122659
  0.1050985372030336  0.3035820441207857  0.5524094116923771
  0.5889089098670310  0.9794857445442521  0.8162421799850502
  0.4515719652863802  0.0904203843314656  0.3261233247937740
  0.7959205890354859  0.6117308763461815  0.0084817124385160
 
  0.00000000E+00  0.00000000E+00  0.00000000E+00
  0.00000000E+00  0.00000000E+00  0.00000000E+00
  0.00000000E+00  0.00000000E+00  0.00000000E+00
  0.00000000E+00  0.00000000E+00  0.00000000E+00
  0.00000000E+00  0.00000000E+00  0.00000000E+00
  0.00000000E+00  0.00000000E+00  0.00000000E+00
  0.00000000E+00  0.00000000E+00  0.00000000E+00
  0.00000000E+00  0.00000000E+00  0.00000000E+00
  0.00000000E+00  0.00000000E+00  0.00000000E+00
  0.00000000E+00  0.00000000E+00  0.00000000E+00
  0.00000000E+00  0.00000000E+00  0.00000000E+00
  0.00000000E+00  0.00000000E+00  0.00000000E+00
  0.00000000E+00  0.00000000E+00  0.00000000E+00
  0.00000000E+00  0.00000000E+00  0.00000000E+00
  0.00000000E+00  0.00000000E+00  0.00000000E+00
  0.00000000E+00  0.00000000E+00  0.00000000E+00
  0.00000000E+00  0.00000000E+00  0.00000000E+00
  0.00000000E+00  0.00000000E+00  0.00000000E+00
  0.00000000E+00  0.00000000E+00  0.00000000E+00
  0.00000000E+00  0.00000000E+00  0.00000000E+00
  0.00000000E+00  0.00000000E+00  0.00000000E+00
  0.00000000E+00  0.00000000E+00  0.00000000E+00
  0.00000000E+00  0.00000000E+00  0.00000000E+00
  0.00000000E+00  0.00000000E+00  0.00000000E+00
  0.00000000E+00  0.00000000E+00  0.00000000E+00
  0.00000000E+00  0.00000000E+00  0.00000000E+00
  0.00000000E+00  0.00000000E+00  0.00000000E+00
  0.00000000E+00  0.00000000E+00  0.00000000E+00
  0.00000000E+00  0.00000000E+00  0.00000000E+00
  0.00000000E+00  0.00000000E+00  0.00000000E+00
  0.00000000E+00  0.00000000E+00  0.00000000E+00
  0.00000000E+00  0.00000000E+00  0.00000000E+00
  0.00000000E+00  0.00000000E+00  0.00000000E+00
  0.00000000E+00  0.00000000E+00  0.00000000E+00
  0.00000000E+00  0.00000000E+00  0.00000000E+00
  0.00000000E+00  0.00000000E+00  0.00000000E+00
  0.00000000E+00  0.00000000E+00  0.00000000E+00
  0.00000000E+00  0.00000000E+00  0.00000000E+00
  0.00000000E+00  0.00000000E+00  0.00000000E+00
