Ni4 P8 O24                              
   1.00000000000000     
    -5.0996205250764968   -4.0965533516952899    2.7649166746519369
     5.0996356088967207   -4.0970791723777085   -2.7655827343789654
     5.0750484114371890    4.0973460420175520    7.0639188984507912
   Ni   P    O 
     4     8    24
Direct
  0.0001962372373470  0.5002398965632509  0.9999420714524589
  0.9998445319907532  0.9998561590276722  0.4999436845932976
  0.1914452433787375  0.4423641747066327  0.7493267733888871
  0.8085499165689001  0.5576397935471391  0.2506539559459213
  0.0068402987758773  0.8096304830611842  0.8016613217020634
  0.5078392088316335  0.2054829082766432  0.6984197834090082
  0.9931506368949314  0.1904063429724516  0.1983449890123694
  0.4921813712400507  0.7945151236169465  0.3016223458824570
  0.2738193531225264  0.2293490141424854  0.0236769627475084
  0.7052822503941130  0.2498229802692364  0.4762854707534743
  0.7261552251732724  0.7706522573330616  0.9763476362847001
  0.2947148577849461  0.7501842628255844  0.5237407593648626
  0.8105040409974862  0.8111583029398517  0.8449940456522995
  0.4663816213496261  0.9657991442078071  0.6550874938560725
  0.1895076685174359  0.1887860828699175  0.1550393632381812
  0.5336675666385915  0.0341826717837961  0.3449483496484973
  0.2212964918415992  0.9976991525951036  0.9344366858950011
  0.5631977879545929  0.2868682789775789  0.5655863324116766
  0.7786847332333693  0.0022875563858520  0.0655717234836857
  0.4367830874345273  0.7131038550535180  0.4344225807143545
  0.9611286256939664  0.8420569502059365  0.6493669234963733
  0.6928856631971456  0.3120496326654063  0.8505754111814881
  0.0387954339090584  0.1578902164594140  0.3506214133183931
  0.3072303549823090  0.6880359859342846  0.1494421254432865
  0.0379466126281542  0.6149715223031009  0.8219662392084217
  0.2927769349873230  0.2161380339864678  0.6778995551193319
  0.9621078358515689  0.3850625615728944  0.1779714035605480
  0.7072079062280352  0.7837873827121840  0.3221026738919690
  0.1259907859938636  0.3060105321137456  0.9167828217564633
  0.8890876790533895  0.2091016638960710  0.5830925195604166
  0.8739728446783062  0.6939603269314247  0.0832294378790266
  0.1109392507449698  0.7909284523643123  0.4169423932901068
  0.4879269410742992  0.6515648930203923  0.9059737735754823
  0.2455554296124731  0.5820406325535146  0.5937237469731755
  0.5120492825455045  0.3484534776855881  0.0940068651223314
  0.7543562894593308  0.4179192944395638  0.4062503671864022
 
  0.00000000E+00  0.00000000E+00  0.00000000E+00
  0.00000000E+00  0.00000000E+00  0.00000000E+00
  0.00000000E+00  0.00000000E+00  0.00000000E+00
  0.00000000E+00  0.00000000E+00  0.00000000E+00
  0.00000000E+00  0.00000000E+00  0.00000000E+00
  0.00000000E+00  0.00000000E+00  0.00000000E+00
  0.00000000E+00  0.00000000E+00  0.00000000E+00
  0.00000000E+00  0.00000000E+00  0.00000000E+00
  0.00000000E+00  0.00000000E+00  0.00000000E+00
  0.00000000E+00  0.00000000E+00  0.00000000E+00
  0.00000000E+00  0.00000000E+00  0.00000000E+00
  0.00000000E+00  0.00000000E+00  0.00000000E+00
  0.00000000E+00  0.00000000E+00  0.00000000E+00
  0.00000000E+00  0.00000000E+00  0.00000000E+00
  0.00000000E+00  0.00000000E+00  0.00000000E+00
  0.00000000E+00  0.00000000E+00  0.00000000E+00
  0.00000000E+00  0.00000000E+00  0.00000000E+00
  0.00000000E+00  0.00000000E+00  0.00000000E+00
  0.00000000E+00  0.00000000E+00  0.00000000E+00
  0.00000000E+00  0.00000000E+00  0.00000000E+00
  0.00000000E+00  0.00000000E+00  0.00000000E+00
  0.00000000E+00  0.00000000E+00  0.00000000E+00
  0.00000000E+00  0.00000000E+00  0.00000000E+00
  0.00000000E+00  0.00000000E+00  0.00000000E+00
  0.00000000E+00  0.00000000E+00  0.00000000E+00
  0.00000000E+00  0.00000000E+00  0.00000000E+00
  0.00000000E+00  0.00000000E+00  0.00000000E+00
  0.00000000E+00  0.00000000E+00  0.00000000E+00
  0.00000000E+00  0.00000000E+00  0.00000000E+00
  0.00000000E+00  0.00000000E+00  0.00000000E+00
  0.00000000E+00  0.00000000E+00  0.00000000E+00
  0.00000000E+00  0.00000000E+00  0.00000000E+00
  0.00000000E+00  0.00000000E+00  0.00000000E+00
  0.00000000E+00  0.00000000E+00  0.00000000E+00
  0.00000000E+00  0.00000000E+00  0.00000000E+00
  0.00000000E+00  0.00000000E+00  0.00000000E+00
