Co4 P16 O44                             
   1.00000000000000     
     5.0285592443269289   -0.0000656501605078   -1.8042402290012751
    -0.0000216746099123   22.1821535150948677   -0.0001881590533769
    -0.0249703839580355   -0.0001664393082581    7.3738647947795286
   Co   P    O 
     4    16    44
Direct
  0.0060121668466227  0.1137291374840039  0.8710050262599626
  0.9938889891137079  0.6137188816026454  0.6288764699867730
  0.9939182694904305  0.8862855742685920  0.1289798909352626
  0.0060673196499424  0.3862898945094622  0.3710609563905755
  0.3947174188441572  0.0350183892168998  0.7083420333377553
  0.6051950406149702  0.5350318006472171  0.7916996994108799
  0.6051596411436164  0.9649721647667078  0.2916641245008289
  0.3947825270650436  0.4649784118929813  0.2083832826491522
  0.6906178854561440  0.9277610521941877  0.6888451257877425
  0.3094712513757736  0.4277742415784608  0.8112253274360048
  0.3094149847976901  0.0722213375104258  0.3111426830025316
  0.6905850282628253  0.5722440803101368  0.1888399516650875
  0.3166916792794843  0.8222695290039814  0.5490357612132420
  0.6832916119019186  0.3222758245574612  0.9509515450417885
  0.6832779390993604  0.1777263372193955  0.4509189012423556
  0.3166852077130721  0.6777295375602866  0.0490530533284677
  0.3825454705973186  0.6949480922291336  0.4646237105049249
  0.6175624339150024  0.1949260068162675  0.0353556127656826
  0.6175344244353834  0.3050665330039302  0.5353704723069181
  0.3824887966278226  0.8050547352960232  0.9645784528611777
  0.2007489772943167  0.0434286042586745  0.8065382342433161
  0.7989550977793767  0.5434897721249001  0.6933546638700840
  0.7989605120646529  0.9565188313750014  0.1933459863855854
  0.2008734056113116  0.4565595026039250  0.3066143811524552
  0.6495588411208713  0.0665380896660030  0.7563304707065255
  0.3502620964304922  0.5665076366755903  0.7438314849314525
  0.3502358191582589  0.9334909882594017  0.2437590948283184
  0.6496184635614600  0.4334623424754748  0.2563296083137951
  0.7666109541770163  0.9555301754882947  0.5214101235573242
  0.2334237653781547  0.4555490636859859  0.9786219937470753
  0.2334182578231387  0.0444514313034201  0.4785667125984903
  0.7666717095976856  0.5444735192568615  0.0214438811534851
  0.4452395186960899  0.9626527309342214  0.7061230659218612
  0.5549053025876142  0.4626514260556959  0.7939841138508689
  0.5548523010785585  0.0373441209532461  0.2939187737877337
  0.4452436171534230  0.5373472168825072  0.2061513653022236
  0.9244526074985631  0.9232631565053484  0.8619475472946054
  0.0756176792711667  0.4232734697638196  0.6381375539110901
  0.0755894811742117  0.0767108612210153  0.1380436395561435
  0.9244133010714725  0.5767497729794191  0.3619392598055077
  0.5683169028019774  0.8642622454494066  0.6141246588318643
  0.4316741153466409  0.3642608945953802  0.8858756717964137
  0.4316861886940574  0.1357283175806143  0.3858560241952197
  0.5683204720545807  0.6357407359927042  0.1141472438881175
  0.0835093482018460  0.8464467917317664  0.3986183807636718
  0.9164024466159268  0.3464681983024872  0.1014093920625126
  0.9164640579482545  0.1535497606009087  0.6013451789025029
  0.0834930579056485  0.6535395449415160  0.8986637527903449
  0.4517678669965912  0.7662669045842437  0.4935489911873905
  0.5483455676596850  0.2662447661398282  0.0063924697985107
  0.5482777855453095  0.2337430668442065  0.5064108905313680
  0.4517040878102354  0.7337340555203183  0.9935323610949697
  0.2455229709224268  0.8070759267517201  0.7311079197261775
  0.7544634606719726  0.3070991727450934  0.7688563072344602
  0.7544710141017603  0.1929101953047078  0.2688364187365246
  0.2455737643642162  0.6929213807538702  0.2311569083979264
  0.1703444954869707  0.6840452813744874  0.5457222728406649
  0.8299034346910346  0.1840285767694659  0.9543448811203856
  0.8298341302498046  0.3159632212042932  0.4543243050397892
  0.1702355378753570  0.8159689022043856  0.0456344840449262
  0.6323795065853509  0.6614849955594486  0.5189573041372662
  0.3677260114046429  0.1614561954865211  0.9809474898663227
  0.3676897283769316  0.3385301521569409  0.4809702493914509
  0.6323342529306786  0.8385164432686936  0.0188724080761577
 
  0.00000000E+00  0.00000000E+00  0.00000000E+00
  0.00000000E+00  0.00000000E+00  0.00000000E+00
  0.00000000E+00  0.00000000E+00  0.00000000E+00
  0.00000000E+00  0.00000000E+00  0.00000000E+00
  0.00000000E+00  0.00000000E+00  0.00000000E+00
  0.00000000E+00  0.00000000E+00  0.00000000E+00
  0.00000000E+00  0.00000000E+00  0.00000000E+00
  0.00000000E+00  0.00000000E+00  0.00000000E+00
  0.00000000E+00  0.00000000E+00  0.00000000E+00
  0.00000000E+00  0.00000000E+00  0.00000000E+00
  0.00000000E+00  0.00000000E+00  0.00000000E+00
  0.00000000E+00  0.00000000E+00  0.00000000E+00
  0.00000000E+00  0.00000000E+00  0.00000000E+00
  0.00000000E+00  0.00000000E+00  0.00000000E+00
  0.00000000E+00  0.00000000E+00  0.00000000E+00
  0.00000000E+00  0.00000000E+00  0.00000000E+00
  0.00000000E+00  0.00000000E+00  0.00000000E+00
  0.00000000E+00  0.00000000E+00  0.00000000E+00
  0.00000000E+00  0.00000000E+00  0.00000000E+00
  0.00000000E+00  0.00000000E+00  0.00000000E+00
  0.00000000E+00  0.00000000E+00  0.00000000E+00
  0.00000000E+00  0.00000000E+00  0.00000000E+00
  0.00000000E+00  0.00000000E+00  0.00000000E+00
  0.00000000E+00  0.00000000E+00  0.00000000E+00
  0.00000000E+00  0.00000000E+00  0.00000000E+00
  0.00000000E+00  0.00000000E+00  0.00000000E+00
  0.00000000E+00  0.00000000E+00  0.00000000E+00
  0.00000000E+00  0.00000000E+00  0.00000000E+00
  0.00000000E+00  0.00000000E+00  0.00000000E+00
  0.00000000E+00  0.00000000E+00  0.00000000E+00
  0.00000000E+00  0.00000000E+00  0.00000000E+00
  0.00000000E+00  0.00000000E+00  0.00000000E+00
  0.00000000E+00  0.00000000E+00  0.00000000E+00
  0.00000000E+00  0.00000000E+00  0.00000000E+00
  0.00000000E+00  0.00000000E+00  0.00000000E+00
  0.00000000E+00  0.00000000E+00  0.00000000E+00
  0.00000000E+00  0.00000000E+00  0.00000000E+00
  0.00000000E+00  0.00000000E+00  0.00000000E+00
  0.00000000E+00  0.00000000E+00  0.00000000E+00
  0.00000000E+00  0.00000000E+00  0.00000000E+00
  0.00000000E+00  0.00000000E+00  0.00000000E+00
  0.00000000E+00  0.00000000E+00  0.00000000E+00
  0.00000000E+00  0.00000000E+00  0.00000000E+00
  0.00000000E+00  0.00000000E+00  0.00000000E+00
  0.00000000E+00  0.00000000E+00  0.00000000E+00
  0.00000000E+00  0.00000000E+00  0.00000000E+00
  0.00000000E+00  0.00000000E+00  0.00000000E+00
  0.00000000E+00  0.00000000E+00  0.00000000E+00
  0.00000000E+00  0.00000000E+00  0.00000000E+00
  0.00000000E+00  0.00000000E+00  0.00000000E+00
  0.00000000E+00  0.00000000E+00  0.00000000E+00
  0.00000000E+00  0.00000000E+00  0.00000000E+00
  0.00000000E+00  0.00000000E+00  0.00000000E+00
  0.00000000E+00  0.00000000E+00  0.00000000E+00
  0.00000000E+00  0.00000000E+00  0.00000000E+00
  0.00000000E+00  0.00000000E+00  0.00000000E+00
  0.00000000E+00  0.00000000E+00  0.00000000E+00
  0.00000000E+00  0.00000000E+00  0.00000000E+00
  0.00000000E+00  0.00000000E+00  0.00000000E+00
  0.00000000E+00  0.00000000E+00  0.00000000E+00
  0.00000000E+00  0.00000000E+00  0.00000000E+00
  0.00000000E+00  0.00000000E+00  0.00000000E+00
  0.00000000E+00  0.00000000E+00  0.00000000E+00
  0.00000000E+00  0.00000000E+00  0.00000000E+00
