Co4 P16 O44
1.0
4.996938 0.000000 -1.825653
0.000000 22.263000 0.000000
0.000000 0.000000 7.408000
Co P O
4 16 44
direct
0.003880 0.114060 0.869990 Co2+
0.996120 0.614060 0.630010 Co2+
0.996120 0.885940 0.130010 Co2+
0.003880 0.385940 0.369990 Co2+
0.403100 0.034830 0.708060 P5+
0.596900 0.534830 0.791940 P5+
0.596900 0.965170 0.291940 P5+
0.403100 0.465170 0.208060 P5+
0.694200 0.927960 0.686990 P5+
0.305800 0.427960 0.813010 P5+
0.305800 0.072040 0.313010 P5+
0.694200 0.572040 0.186990 P5+
0.323100 0.821720 0.554570 P5+
0.676900 0.321720 0.945430 P5+
0.676900 0.178280 0.445430 P5+
0.323100 0.678280 0.054570 P5+
0.398000 0.695920 0.468510 P5+
0.602000 0.195920 0.031490 P5+
0.602000 0.304080 0.531490 P5+
0.398000 0.804080 0.968510 P5+
0.222600 0.044760 0.814700 O2-
0.777400 0.544760 0.685300 O2-
0.777400 0.955240 0.185300 O2-
0.222600 0.455240 0.314700 O2-
0.662100 0.064820 0.750000 O2-
0.337900 0.564820 0.750000 O2-
0.337900 0.935180 0.250000 O2-
0.662100 0.435180 0.250000 O2-
0.768700 0.954950 0.518800 O2-
0.231300 0.454950 0.981200 O2-
0.231300 0.045050 0.481200 O2-
0.768700 0.545050 0.018800 O2-
0.446400 0.962750 0.702200 O2-
0.553600 0.462750 0.797800 O2-
0.553600 0.037250 0.297800 O2-
0.446400 0.537250 0.202200 O2-
0.928800 0.924030 0.858800 O2-
0.071200 0.424030 0.641200 O2-
0.071200 0.075970 0.141200 O2-
0.928800 0.575970 0.358800 O2-
0.573700 0.864170 0.615900 O2-
0.426300 0.364170 0.884100 O2-
0.426300 0.135830 0.384100 O2-
0.573700 0.635830 0.115900 O2-
0.085000 0.844800 0.405900 O2-
0.915000 0.344800 0.094100 O2-
0.915000 0.155200 0.594100 O2-
0.085000 0.655200 0.905900 O2-
0.462600 0.766900 0.499400 O2-
0.537400 0.266900 0.000600 O2-
0.537400 0.233100 0.500600 O2-
0.462600 0.733100 0.999400 O2-
0.256500 0.807300 0.737300 O2-
0.743500 0.307300 0.762700 O2-
0.743500 0.192700 0.262700 O2-
0.256500 0.692700 0.237300 O2-
0.192100 0.682830 0.552900 O2-
0.807900 0.182830 0.947100 O2-
0.807900 0.317170 0.447100 O2-
0.192100 0.817170 0.052900 O2-
0.653000 0.663900 0.518800 O2-
0.347000 0.163900 0.981200 O2-
0.347000 0.336100 0.481200 O2-
0.653000 0.836100 0.018800 O2-
