Ti1 S2                                  
   1.00000000000000     
     3.4598143852134844    0.0000023261558070   -0.0000258829971340
    -1.7299051892185848    2.9962873462578634    0.0000260276034304
    -0.0000393359607525    0.0000230293654313    6.0051734630415838
   Ti   S 
     1     2
Direct
  0.9999999553819308  0.9999999297445044  0.0000000102330446
  0.6666681427703764  0.3333322727918855  0.7668711216833373
  0.3333319018476928  0.6666677974636102  0.2331288680836181
 
  0.00000000E+00  0.00000000E+00  0.00000000E+00
  0.00000000E+00  0.00000000E+00  0.00000000E+00
  0.00000000E+00  0.00000000E+00  0.00000000E+00
