Ni32 P12                                
   1.00000000000000     
    -3.2019731031906682   -5.5695397492786789   -0.0107410122955757
    -6.4239888545148753    0.0115839752625924   -0.0115270791953639
    -3.2307041695233658   -1.8636346422941037  -12.3765759891547056
   Ni   P 
    32    12
Direct
  0.5014984911290128  0.5016343344196912  0.5007068723876600
  0.0017203225473779  0.0014612933954794  0.0006230164552363
  0.8366465894926165  0.8422525581968614  0.4831510309213556
  0.3419122290134382  0.3366350618317213  0.9833021931943620
  0.5627718938005657  0.5588694606805618  0.3140334773309803
  0.0595275624095990  0.0624344899117801  0.8137765146246068
  0.7216215027952444  0.7210290884122799  0.8316426030557125
  0.2204540645995365  0.2216710510373119  0.3317264401887527
  0.4339381702639429  0.6665791806225769  0.9972527262258808
  0.9018690437846431  0.4361981691475236  0.9969226634951411
  0.6697984469349336  0.9004686632049612  0.9971518881156385
  0.1673717301617685  0.9330807829102739  0.4975224268304927
  0.4006034921489388  0.1695037033608244  0.4972209744841010
  0.9362373586307911  0.4016265484498973  0.4969391794181846
  0.1574915420594181  0.3925990069011149  0.8193170385090838
  0.6248216822758863  0.1633961024963710  0.8193500542858061
  0.3924246571750416  0.6258730485178461  0.8192195704039946
  0.8925946935822608  0.6576982519065240  0.3192488745591291
  0.1255782974202688  0.8924006433034961  0.3192454129831930
  0.6585259714377045  0.1259043681410503  0.3184045791862076
  0.5674798723238226  0.9223431682037457  0.2103701801326707
  0.2952947033965856  0.5735246116841211  0.2066532520167073
  0.9257674281730672  0.2952383801412779  0.2067937585903366
  0.4244686844104422  0.0706796112262751  0.7098518872846213
  0.7954535644427878  0.4258046503249631  0.7067082881025826
  0.0737685259467966  0.7951707653210320  0.7066388584700150
  0.1384078635597916  0.4910965953658035  0.6075958436525113
  0.7632525336591556  0.1382086874412067  0.6075087575021385
  0.4906767338961018  0.7667132761927746  0.6065550558444883
  0.9910785603368453  0.6383697190160689  0.1076177842415191
  0.2667014677230455  0.9901430814555141  0.1064485770221069
  0.6381032477665372  0.2626113539445072  0.1076311565436541
  0.7810872471006931  0.7816816119777883  0.6574171685670933
  0.2815449630277413  0.2807028291733431  0.1574609552755106
  0.9395307409916285  0.9394137606333359  0.1815906252525821
  0.4396667880935254  0.4400258076308745  0.6815091053401048
  0.6232151204976120  0.6215141579203802  0.1341422795533802
  0.1225415597739712  0.1229458985700163  0.6342581989033391
  0.3505518322362562  0.0297783246621037  0.9079063743048650
  0.7142820388326356  0.3493204844007280  0.9078264270479721
  0.0313935009521344  0.7127970027972950  0.9078872927599235
  0.5298706430786808  0.8497760754848827  0.4080506758211797
  0.2130165327892470  0.5306366928525037  0.4076350714447656
  0.8486381053279359  0.2133876467313485  0.4075848896703818
 
  0.00000000E+00  0.00000000E+00  0.00000000E+00
  0.00000000E+00  0.00000000E+00  0.00000000E+00
  0.00000000E+00  0.00000000E+00  0.00000000E+00
  0.00000000E+00  0.00000000E+00  0.00000000E+00
  0.00000000E+00  0.00000000E+00  0.00000000E+00
  0.00000000E+00  0.00000000E+00  0.00000000E+00
  0.00000000E+00  0.00000000E+00  0.00000000E+00
  0.00000000E+00  0.00000000E+00  0.00000000E+00
  0.00000000E+00  0.00000000E+00  0.00000000E+00
  0.00000000E+00  0.00000000E+00  0.00000000E+00
  0.00000000E+00  0.00000000E+00  0.00000000E+00
  0.00000000E+00  0.00000000E+00  0.00000000E+00
  0.00000000E+00  0.00000000E+00  0.00000000E+00
  0.00000000E+00  0.00000000E+00  0.00000000E+00
  0.00000000E+00  0.00000000E+00  0.00000000E+00
  0.00000000E+00  0.00000000E+00  0.00000000E+00
  0.00000000E+00  0.00000000E+00  0.00000000E+00
  0.00000000E+00  0.00000000E+00  0.00000000E+00
  0.00000000E+00  0.00000000E+00  0.00000000E+00
  0.00000000E+00  0.00000000E+00  0.00000000E+00
  0.00000000E+00  0.00000000E+00  0.00000000E+00
  0.00000000E+00  0.00000000E+00  0.00000000E+00
  0.00000000E+00  0.00000000E+00  0.00000000E+00
  0.00000000E+00  0.00000000E+00  0.00000000E+00
  0.00000000E+00  0.00000000E+00  0.00000000E+00
  0.00000000E+00  0.00000000E+00  0.00000000E+00
  0.00000000E+00  0.00000000E+00  0.00000000E+00
  0.00000000E+00  0.00000000E+00  0.00000000E+00
  0.00000000E+00  0.00000000E+00  0.00000000E+00
  0.00000000E+00  0.00000000E+00  0.00000000E+00
  0.00000000E+00  0.00000000E+00  0.00000000E+00
  0.00000000E+00  0.00000000E+00  0.00000000E+00
  0.00000000E+00  0.00000000E+00  0.00000000E+00
  0.00000000E+00  0.00000000E+00  0.00000000E+00
  0.00000000E+00  0.00000000E+00  0.00000000E+00
  0.00000000E+00  0.00000000E+00  0.00000000E+00
  0.00000000E+00  0.00000000E+00  0.00000000E+00
  0.00000000E+00  0.00000000E+00  0.00000000E+00
  0.00000000E+00  0.00000000E+00  0.00000000E+00
  0.00000000E+00  0.00000000E+00  0.00000000E+00
  0.00000000E+00  0.00000000E+00  0.00000000E+00
  0.00000000E+00  0.00000000E+00  0.00000000E+00
  0.00000000E+00  0.00000000E+00  0.00000000E+00
  0.00000000E+00  0.00000000E+00  0.00000000E+00
