Ca1 Mn4 P6 O24
1.0
2.906818 7.140161 3.640636
1.172306 0.637048 8.375478
7.729404 0.312854 3.455466
Ca Mn P O
1 4 6 24
direct
0.250187 0.848459 0.567768 Ca
0.642418 0.655092 0.639355 Mn
0.132357 0.159647 0.134489 Mn
0.847892 0.839501 0.864102 Mn
0.361733 0.340195 0.362037 Mn
0.258448 0.520847 0.951702 P
0.016888 0.745209 0.477424 P
0.971081 0.256906 0.514586 P
0.440833 0.026290 0.760780 P
0.559201 0.978766 0.228494 P
0.734482 0.469306 0.056042 P
0.581471 0.773873 0.401584 O
0.271140 0.031359 0.952821 O
0.434743 0.552895 0.760362 O
0.909688 0.271402 0.068400 O
0.820905 0.431813 0.575636 O
0.076724 0.926831 0.339055 O
0.932610 0.062976 0.661761 O
0.551931 0.454101 0.236528 O
0.727652 0.968507 0.039362 O
0.166625 0.563893 0.425497 O
0.088522 0.724834 0.919003 O
0.413376 0.229484 0.594574 O
0.217336 0.367252 0.948873 O
0.814628 0.789747 0.487714 O
0.981803 0.295510 0.311874 O
0.442861 0.877168 0.705722 O
0.361756 1.031432 0.218513 O
0.694694 0.538552 0.869736 O
0.299722 0.460206 0.130959 O
0.012450 0.705083 0.680851 O
0.178308 0.206254 0.505483 O
0.634149 -0.041717 0.785436 O
0.554018 0.126171 0.283836 O
0.780390 0.624784 0.052492 O
