Ca1 Fe4 S6 O24                          
   1.00000000000000     
     7.6064569999999998    0.1270440000000000    4.4708730000000001
     2.6034809999999999    7.1459630000000001    4.5098690000000001
     0.1709760000000000    0.1655870000000000    8.8278669999999995
   Ca   Fe   S    O 
     1     4     6    24
Direct
  0.2515719880062660  0.8707845553066106  0.6051439624223776
  0.6579339870809434  0.6366245241484858  0.6477310818436942
  0.1396363219026359  0.1466271247327073  0.1337440016500794
  0.8391380445807515  0.8384049488135852  0.8550805980262532
  0.3636580251201430  0.3441331336313069  0.3531770017319878
  0.9580880993367838  0.2488271307245127  0.5222694090808843
  0.4487186594771143  0.0277201760305952  0.7464594002768604
  0.5471291724194589  0.9635311063117640  0.2418076217376509
  0.7484532733686208  0.4487055258196711  0.0492064569011292
  0.2544177774126327  0.5262147569685778  0.9534627087839880
  0.0481333357620957  0.7440519645018560  0.4577264672252964
  0.4153214027082970  0.5613041508054154  0.7739255263851539
  0.9182909999296408  0.2797393917978630  0.0414788887072361
  0.8073527052838474  0.4077152276652911  0.5769453978859398
  0.0619565355700641  0.9216910012001827  0.3004115220581983
  0.5825331731627759  0.7799473294631092  0.4007378914657140
  0.3094832405866917  0.0274442249329278  0.9337221989183393
  0.6863307730660886  0.9505617338736977  0.0603118303147515
  0.2079249790241516  0.5849727326423833  0.4062575225845554
  0.0930709129255310  0.7072892369292015  0.9292867213151343
  0.4018027593752598  0.2158568983967796  0.6031409062751008
  0.9321538674977690  0.0686221803547705  0.6784396795072901
  0.5963678637320530  0.4136646716367428  0.2304470659067741
  0.9634104317581371  0.2609821836790202  0.3487751907562874
  0.4453757817015905  0.8879083622370912  0.7032130536253218
  0.3535466917602306  0.0061113018086083  0.2556656277127669
  0.6846647254632734  0.5093473103460545  0.8957229547563649
  0.2172257350435226  0.3745535210429236  0.9708029517347110
  0.8694173623417784  0.7312567037389788  0.5063546621854100
  0.1457478493006092  0.2307788985194302  0.4991938446865137
  0.6388437115045781  0.9696072323102478  0.7415430843305928
  0.5454888773801078  0.1095161588115396  0.2749277678890416
  0.7927764266924551  0.6013355750934530  0.0240722098875599
  0.2958733986985948  0.4789091493254352  0.1150373863658365
  0.0533609772383412  0.7440951820958067  0.6236058998633013
 
             NaN             NaN             NaN
             NaN             NaN             NaN
             NaN             NaN             NaN
             NaN             NaN             NaN
             NaN             NaN             NaN
             NaN             NaN             NaN
             NaN             NaN             NaN
             NaN             NaN             NaN
             NaN             NaN             NaN
             NaN             NaN             NaN
             NaN             NaN             NaN
             NaN             NaN             NaN
             NaN             NaN             NaN
             NaN             NaN             NaN
             NaN             NaN             NaN
             NaN             NaN             NaN
             NaN             NaN             NaN
             NaN             NaN             NaN
             NaN             NaN             NaN
             NaN             NaN             NaN
             NaN             NaN             NaN
             NaN             NaN             NaN
             NaN             NaN             NaN
             NaN             NaN             NaN
             NaN             NaN             NaN
             NaN             NaN             NaN
             NaN             NaN             NaN
             NaN             NaN             NaN
             NaN             NaN             NaN
             NaN             NaN             NaN
             NaN             NaN             NaN
             NaN             NaN             NaN
             NaN             NaN             NaN
             NaN             NaN             NaN
             NaN             NaN             NaN
