Ca1 Fe4 S6 O24                          
   1.00000000000000     
     7.6064569999999998    0.1270440000000000    4.4708730000000001
     2.6034809999999999    7.1459630000000001    4.5098690000000001
     0.1709760000000000    0.1655870000000000    8.8278669999999995
   Ca   Fe   S    O 
     1     4     6    24
Direct
  0.2515694873855238  0.8707810528616503  0.6051491531074249
  0.6579761815257820  0.6366399238938762  0.6477112369261212
  0.1396750764638477  0.1466841295340926  0.1336885548208956
  0.8390253944716408  0.8384823120481880  0.8550130949217520
  0.3636731479023417  0.3441470438887577  0.3531550194464112
  0.9580859359564402  0.2488188550394977  0.5222814421605630
  0.4487271489962381  0.0277102112679840  0.7464563042161375
  0.5471403539187445  0.9635179083349661  0.2418137246483742
  0.7484575712112773  0.4487095108087629  0.0492092479246748
  0.2544040699846403  0.5262402895788784  0.9534642949761524
  0.0481503288130994  0.7440448919131671  0.4577308196133395
  0.4153219635827791  0.5613096192223731  0.7739149094486123
  0.9182925025233990  0.2797194560219537  0.0414813585807046
  0.8073347157528813  0.4077284908090740  0.5769635106839139
  0.0619556257945719  0.9216751593971544  0.3004211347435193
  0.5825354808530641  0.7799543128956521  0.4007278073081121
  0.3094715699244919  0.0274615329972785  0.9337150391113986
  0.6863664950964994  0.9505386114365694  0.0602979259919890
  0.2079170583783239  0.5849745454779354  0.4062719376273024
  0.0930853043410632  0.7072732584574311  0.9292826754268788
  0.4018143998780221  0.2158148503780917  0.6031632697256155
  0.9321537562513529  0.0686235820341232  0.6784508964952359
  0.5963705185886732  0.4136634414935898  0.2304463359795616
  0.9633854979387397  0.2609962592183119  0.3487938408814079
  0.4453676034408955  0.8879184669583231  0.7032359955736909
  0.3535397167670158  0.0060927812206171  0.2556929929950263
  0.6846646954090702  0.5093429769091254  0.8957095386761522
  0.2172172737263385  0.3745351092920495  0.9707962612997112
  0.8693721448260742  0.7312420818693407  0.5063791057111683
  0.1457288756062427  0.2307602410377044  0.4992204022155006
  0.6388871040621618  0.9695930331754706  0.7415505167765456
  0.5455111999912466  0.1094832275524044  0.2749311326756944
  0.7927872864124789  0.6013350131384404  0.0240691993879901
  0.2958768403418228  0.4789246518947975  0.1150185042081637
  0.0533685837478863  0.7440813646429533  0.6236172270452852
 
             NaN             NaN             NaN
             NaN             NaN             NaN
             NaN             NaN             NaN
             NaN             NaN             NaN
             NaN             NaN             NaN
             NaN             NaN             NaN
             NaN             NaN             NaN
             NaN             NaN             NaN
             NaN             NaN             NaN
             NaN             NaN             NaN
             NaN             NaN             NaN
             NaN             NaN             NaN
             NaN             NaN             NaN
             NaN             NaN             NaN
             NaN             NaN             NaN
             NaN             NaN             NaN
             NaN             NaN             NaN
             NaN             NaN             NaN
             NaN             NaN             NaN
             NaN             NaN             NaN
             NaN             NaN             NaN
             NaN             NaN             NaN
             NaN             NaN             NaN
             NaN             NaN             NaN
             NaN             NaN             NaN
             NaN             NaN             NaN
             NaN             NaN             NaN
             NaN             NaN             NaN
             NaN             NaN             NaN
             NaN             NaN             NaN
             NaN             NaN             NaN
             NaN             NaN             NaN
             NaN             NaN             NaN
             NaN             NaN             NaN
             NaN             NaN             NaN
