Ca1 Co4 S6 O24
1.0
7.536887 0.125002 4.533317
2.641413 7.030121 4.536839
0.229083 0.123293 8.774471
Ca Co S O
1 4 6 24
direct
0.311802 0.785578 0.581390 Ca
0.647600 0.641923 0.652410 Co
0.140557 0.144250 0.144326 Co
0.844359 0.844067 0.849520 Co
0.356849 0.352692 0.348849 Co
0.956788 0.251642 0.526598 S
0.452981 0.038536 0.746978 S
0.542546 0.962339 0.243260 S
0.747447 0.448433 0.045442 S
0.247097 0.536252 0.955376 S
0.040412 0.748785 0.458845 S
0.401271 0.580418 0.766860 O
0.918828 0.281495 0.052637 O
0.800103 0.418430 0.562611 O
0.063875 0.913715 0.290859 O
0.589056 0.778545 0.399055 O
0.312470 0.038545 0.938205 O
0.683111 0.951717 0.057465 O
0.200476 0.577851 0.430279 O
0.073949 0.704638 0.940760 O
0.399506 0.225767 0.602756 O
0.938634 0.077849 0.692895 O
0.588977 0.415320 0.228838 O
0.963205 0.242255 0.361773 O
0.455149 0.890269 0.711382 O
0.349740 0.992774 0.264770 O
0.699004 0.483785 0.891246 O
0.226631 0.371507 0.979673 O
0.863399 0.737196 0.507513 O
0.138413 0.251895 0.491514 O
0.641863 -0.005302 0.736912 O
0.533728 0.115642 0.272432 O
0.772064 0.613123 0.017223 O
0.290434 0.508225 0.107779 O
0.040279 0.763467 0.619789 O
