Ca12 Cr8 Si12 O48                       
   1.00000000000000     
     6.0013563234711915    6.0013879055734760    6.0015220583863202
     6.0013542580346808   -6.0013927880859903   -6.0015149882339074
    -6.0013612554007523    6.0013874713345441   -6.0015167029820331
   Ca   Cr   Si   O 
    12     8    12    48
Direct
  0.7500058786492545  0.6249999849264114  0.3750050009813677
  0.2499929088002588  0.8750007137384515  0.1249930988965602
  0.1250005358377280  0.7500005439724688  0.3750048621520108
  0.3749955616705520  0.2499974644830871  0.1249970847896975
  0.3749972330125075  0.6249954943161171  0.2500000147547112
  0.1250050784457528  0.8750029660027678  0.7499999857457240
  0.2500059048240360  0.3749987834993078  0.6250079947448057
  0.7499929127731875  0.1249980690498447  0.8749939668937827
  0.8749974318921403  0.2500005402983874  0.6249982762257815
  0.6250024904555644  0.7499974616760596  0.8749998238528249
  0.6250031340532445  0.3750048816631946  0.7499999858823259
  0.8749953299551834  0.1249974252352644  0.2499999869298151
  0.9999931071872652  0.0000117230183179  0.4999808524378722
  0.4999933781816281  0.5000124770271768  0.4999816806713824
  0.0000300307306063  0.5000107803934242  0.0000176709850166
  0.5000305484245757  0.0000121222934979  0.0000189762617779
  0.0000256004337587  0.5000163590472440  0.5000226017163314
  0.4999939096536252  0.0000166753702615  0.4999908564643931
  0.5000258977966681  0.5000031941112653  0.0000091152855433
  0.9999941279476587  0.0000032233156375  0.9999774368100205
  0.7499987111904218  0.3749972304406057  0.1249944770276130
  0.2500019083254443  0.1250030770737496  0.3750049006480864
  0.3750116212305983  0.7499963908567366  0.6250092140538968
  0.1249867179001640  0.2500020306463000  0.8749906805720116
  0.6249879885572724  0.8749887286810463  0.2499998272483595
  0.8750124436512152  0.6250116821101983  0.7499999002747870
  0.2499990794252440  0.6250036960151633  0.8750024076472727
  0.7500021884933687  0.8749978738592290  0.6249982627938593
  0.6249865238950392  0.2499966627273835  0.3749856557525248
  0.8750123275156980  0.7500023510476410  0.1250147506055725
  0.3750129398363242  0.1250122120967561  0.7500001316592062
  0.1249885689150148  0.3749893025567985  0.2500000881851250
  0.3931557527300100  0.3063918562171892  0.5082360848385648
  0.1068323834416631  0.1150611785532618  0.4132344566800441
  0.7018272376465902  0.1935983159577290  0.0867650326148564
  0.7981549651682727  0.3849181556386156  0.9917632585959879
  0.0867394013969545  0.2018301049116644  0.6935949348250432
  0.9917666914027237  0.2981786676489762  0.8849173005777331
  0.5082353676264049  0.8931454131998109  0.8064056115161122
  0.4132605941549912  0.6068485747495416  0.6150809468154463
  0.8849375684763388  0.4917903822130967  0.7981723496114128
  0.6936184258912803  0.5867654726932798  0.7018272342467782
  0.6150596048017221  0.9132456178432804  0.1068569843473171
  0.8063888023156380  0.0082029637056564  0.3931431026815346
  0.6068323632515487  0.6935978440256534  0.4917709024153893
  0.8931556991542848  0.8849199443857856  0.5867639762838621
  0.2981554221492786  0.8063913019308515  0.9132365640311590
  0.2018276550305913  0.6150629211263094  0.0082297603791872
  0.9132610987812910  0.7981791799055600  0.3064116420264398
  0.0082359883336736  0.7018304785012361  0.1150913888609111
  0.4917673092564456  0.1068485375044119  0.1935878463334788
  0.5867399572255181  0.3931453516503893  0.3849103619139385
  0.1150613205871167  0.5082035821154065  0.2018148715988204
  0.3063883484836296  0.4132461782985715  0.2981855345381348
  0.3849393433441080  0.0867660178612013  0.8931479694118210
  0.1936178571915974  0.9917910534417658  0.6068519507439731
  0.3849242768947718  0.7981661212872808  0.4917930525995047
  0.1936104876218323  0.7017999325833415  0.5867595979899392
  0.1150394999481890  0.1068503617625467  0.9132398769562045
  0.3063727683360469  0.3931320685433235  0.0082059351835255
  0.8931585758694780  0.5082228812537650  0.3063740368003920
  0.6068385036458537  0.4132337349760107  0.1150544751398783
  0.2018493213929915  0.0867841358673331  0.1936265507019215
  0.2981783091080175  0.9917830307204767  0.3849437779283846
  0.5867426988476865  0.6935926773490664  0.2018324960985680
  0.4917593195820587  0.8849094545319005  0.2981671291792338
  0.0082462059682200  0.8064086827182493  0.8931524168869629
  0.9132561821728871  0.6150934515050679  0.6068475710700838
  0.6150410840606710  0.2018004179371147  0.5081902605264332
  0.8063726823566526  0.2981665048019195  0.4132416030280766
  0.8849263735169615  0.8931319557159938  0.0867593934715103
  0.6936103076600730  0.6068502714360378  0.9918105084293174
  0.1068384346556712  0.4917836779210489  0.6936046044447011
  0.3931585358107910  0.5867847127840378  0.8849359183084573
  0.7981787441732067  0.9132342750380715  0.8063948533602669
  0.7018496853141514  0.0082235545610985  0.6150658245968401
  0.4132567305721082  0.3064082325603437  0.7981622034267559
  0.5082469077131435  0.1150952596231107  0.7018382562091219
  0.9917600067586605  0.1935921606655526  0.1068490682650420
  0.0867431805172174  0.3849112282282974  0.3931509545609160
 
  0.00000000E+00  0.00000000E+00  0.00000000E+00
  0.00000000E+00  0.00000000E+00  0.00000000E+00
  0.00000000E+00  0.00000000E+00  0.00000000E+00
  0.00000000E+00  0.00000000E+00  0.00000000E+00
  0.00000000E+00  0.00000000E+00  0.00000000E+00
  0.00000000E+00  0.00000000E+00  0.00000000E+00
  0.00000000E+00  0.00000000E+00  0.00000000E+00
  0.00000000E+00  0.00000000E+00  0.00000000E+00
  0.00000000E+00  0.00000000E+00  0.00000000E+00
  0.00000000E+00  0.00000000E+00  0.00000000E+00
  0.00000000E+00  0.00000000E+00  0.00000000E+00
  0.00000000E+00  0.00000000E+00  0.00000000E+00
  0.00000000E+00  0.00000000E+00  0.00000000E+00
  0.00000000E+00  0.00000000E+00  0.00000000E+00
  0.00000000E+00  0.00000000E+00  0.00000000E+00
  0.00000000E+00  0.00000000E+00  0.00000000E+00
  0.00000000E+00  0.00000000E+00  0.00000000E+00
  0.00000000E+00  0.00000000E+00  0.00000000E+00
  0.00000000E+00  0.00000000E+00  0.00000000E+00
  0.00000000E+00  0.00000000E+00  0.00000000E+00
  0.00000000E+00  0.00000000E+00  0.00000000E+00
  0.00000000E+00  0.00000000E+00  0.00000000E+00
  0.00000000E+00  0.00000000E+00  0.00000000E+00
  0.00000000E+00  0.00000000E+00  0.00000000E+00
  0.00000000E+00  0.00000000E+00  0.00000000E+00
  0.00000000E+00  0.00000000E+00  0.00000000E+00
  0.00000000E+00  0.00000000E+00  0.00000000E+00
  0.00000000E+00  0.00000000E+00  0.00000000E+00
  0.00000000E+00  0.00000000E+00  0.00000000E+00
  0.00000000E+00  0.00000000E+00  0.00000000E+00
  0.00000000E+00  0.00000000E+00  0.00000000E+00
  0.00000000E+00  0.00000000E+00  0.00000000E+00
  0.00000000E+00  0.00000000E+00  0.00000000E+00
  0.00000000E+00  0.00000000E+00  0.00000000E+00
  0.00000000E+00  0.00000000E+00  0.00000000E+00
  0.00000000E+00  0.00000000E+00  0.00000000E+00
  0.00000000E+00  0.00000000E+00  0.00000000E+00
  0.00000000E+00  0.00000000E+00  0.00000000E+00
  0.00000000E+00  0.00000000E+00  0.00000000E+00
  0.00000000E+00  0.00000000E+00  0.00000000E+00
  0.00000000E+00  0.00000000E+00  0.00000000E+00
  0.00000000E+00  0.00000000E+00  0.00000000E+00
  0.00000000E+00  0.00000000E+00  0.00000000E+00
  0.00000000E+00  0.00000000E+00  0.00000000E+00
  0.00000000E+00  0.00000000E+00  0.00000000E+00
  0.00000000E+00  0.00000000E+00  0.00000000E+00
  0.00000000E+00  0.00000000E+00  0.00000000E+00
  0.00000000E+00  0.00000000E+00  0.00000000E+00
  0.00000000E+00  0.00000000E+00  0.00000000E+00
  0.00000000E+00  0.00000000E+00  0.00000000E+00
  0.00000000E+00  0.00000000E+00  0.00000000E+00
  0.00000000E+00  0.00000000E+00  0.00000000E+00
  0.00000000E+00  0.00000000E+00  0.00000000E+00
  0.00000000E+00  0.00000000E+00  0.00000000E+00
  0.00000000E+00  0.00000000E+00  0.00000000E+00
  0.00000000E+00  0.00000000E+00  0.00000000E+00
  0.00000000E+00  0.00000000E+00  0.00000000E+00
  0.00000000E+00  0.00000000E+00  0.00000000E+00
  0.00000000E+00  0.00000000E+00  0.00000000E+00
  0.00000000E+00  0.00000000E+00  0.00000000E+00
  0.00000000E+00  0.00000000E+00  0.00000000E+00
  0.00000000E+00  0.00000000E+00  0.00000000E+00
  0.00000000E+00  0.00000000E+00  0.00000000E+00
  0.00000000E+00  0.00000000E+00  0.00000000E+00
  0.00000000E+00  0.00000000E+00  0.00000000E+00
  0.00000000E+00  0.00000000E+00  0.00000000E+00
  0.00000000E+00  0.00000000E+00  0.00000000E+00
  0.00000000E+00  0.00000000E+00  0.00000000E+00
  0.00000000E+00  0.00000000E+00  0.00000000E+00
  0.00000000E+00  0.00000000E+00  0.00000000E+00
  0.00000000E+00  0.00000000E+00  0.00000000E+00
  0.00000000E+00  0.00000000E+00  0.00000000E+00
  0.00000000E+00  0.00000000E+00  0.00000000E+00
  0.00000000E+00  0.00000000E+00  0.00000000E+00
  0.00000000E+00  0.00000000E+00  0.00000000E+00
  0.00000000E+00  0.00000000E+00  0.00000000E+00
  0.00000000E+00  0.00000000E+00  0.00000000E+00
  0.00000000E+00  0.00000000E+00  0.00000000E+00
  0.00000000E+00  0.00000000E+00  0.00000000E+00
  0.00000000E+00  0.00000000E+00  0.00000000E+00
