Ca2 Fe10 O14                            
   1.00000000000000     
     2.9094607960033274   -0.0000321207065797   -0.8698431828853915
    -0.0008063295822213   17.8062169479481334   -0.0032769724177635
     0.0349458810875406   -0.0008134338448094    5.2698209426454099
   Ca   Fe   O 
     2    10    14
Direct
  0.8094752848313789  0.2500121758764635  0.5899100944998992
  0.1906555266602012  0.7499850074799497  0.4101452693434027
  0.2887576400468888  0.0735224098716785  0.5542924391200259
  0.7115977458992333  0.5734723619109587  0.4456191051628622
  0.7111004314345735  0.9264644745543009  0.4455601299462657
  0.2885976634019869  0.4264936215536537  0.5543714956707788
  0.9995889318070255  0.0000200693135213  0.9999476750135301
  0.9998741946678820  0.4999914264146028  0.9999789216342236
  0.4506810996969293  0.8492405602856863  0.9183677845177911
  0.5490672102905165  0.3492775860362940  0.0817177801581721
  0.5494552472924568  0.1507876186744639  0.0816246307924828
  0.4509105437789103  0.6507420965987194  0.9183582229068961
  0.4756873478410029  0.2500328036047748  0.9292427791665148
  0.5244286014477311  0.7499881433487445  0.0708330109662754
  0.9283614141472256  0.3874211932625897  0.8409569048940639
  0.0720126783097044  0.8874140632439094  0.1590866575960845
  0.0717904518611263  0.6125604029923437  0.1591347265110485
  0.9279897737258551  0.1126120768233818  0.8409174862900457
  0.6533885395998595  0.4660193971293296  0.2667282517226468
  0.3466060527409667  0.9660397610945068  0.7331097104091668
  0.3466515101022409  0.5339327080209202  0.7331591335790932
  0.6532440161204178  0.0339705343822061  0.2668039389162473
  0.1834735888823076  0.3308052635386218  0.3464303982355332
  0.8167217335902066  0.8307859553300219  0.6536841786823970
  0.8166228713091428  0.6691877166628828  0.6537127697585277
  0.1832599005142086  0.1692205719954600  0.3463065045060461
 
  0.00000000E+00  0.00000000E+00  0.00000000E+00
  0.00000000E+00  0.00000000E+00  0.00000000E+00
  0.00000000E+00  0.00000000E+00  0.00000000E+00
  0.00000000E+00  0.00000000E+00  0.00000000E+00
  0.00000000E+00  0.00000000E+00  0.00000000E+00
  0.00000000E+00  0.00000000E+00  0.00000000E+00
  0.00000000E+00  0.00000000E+00  0.00000000E+00
  0.00000000E+00  0.00000000E+00  0.00000000E+00
  0.00000000E+00  0.00000000E+00  0.00000000E+00
  0.00000000E+00  0.00000000E+00  0.00000000E+00
  0.00000000E+00  0.00000000E+00  0.00000000E+00
  0.00000000E+00  0.00000000E+00  0.00000000E+00
  0.00000000E+00  0.00000000E+00  0.00000000E+00
  0.00000000E+00  0.00000000E+00  0.00000000E+00
  0.00000000E+00  0.00000000E+00  0.00000000E+00
  0.00000000E+00  0.00000000E+00  0.00000000E+00
  0.00000000E+00  0.00000000E+00  0.00000000E+00
  0.00000000E+00  0.00000000E+00  0.00000000E+00
  0.00000000E+00  0.00000000E+00  0.00000000E+00
  0.00000000E+00  0.00000000E+00  0.00000000E+00
  0.00000000E+00  0.00000000E+00  0.00000000E+00
  0.00000000E+00  0.00000000E+00  0.00000000E+00
  0.00000000E+00  0.00000000E+00  0.00000000E+00
  0.00000000E+00  0.00000000E+00  0.00000000E+00
  0.00000000E+00  0.00000000E+00  0.00000000E+00
  0.00000000E+00  0.00000000E+00  0.00000000E+00
