Ti54 P27                                
   1.00000000000000     
    19.7639893164189004   -0.0001045378576659    0.0000000204824671
    -9.8820852071132688   17.1160554815611157    0.0000000085345559
     0.0000000026015426    0.0000000051788242    3.4981441277566625
   Ti   P 
    54    27
Direct
  0.5822685159331229  0.6673923481176374  0.5000000880539872
  0.3326109744753865  0.9148782487296003  0.4999999745543775
  0.0851261250102624  0.4177358714755997  0.4999999733559122
  0.6673907650873545  0.5822701581834409  0.5000000871882762
  0.9148832960175852  0.3326122578308670  0.4999999764937044
  0.4177362360071015  0.0851265413823157  0.4999999718972177
  0.7513371661346255  0.7513390551631858  0.5000001004611718
  0.2486571529301216  0.9999937790503637  0.4999999848556484
  0.9999942249141824  0.2486570155329488  0.4999999859644220
  0.6671876937609014  0.8032995213059024  0.0000001588429299
  0.1966940354309585  0.8638848396423029  0.0000000217766924
  0.1361132780160546  0.3328179465529786  0.9999999863269977
  0.8032953659167816  0.6671920709927193  0.0000001582801730
  0.8638883867536293  0.1966923736620956  0.0000000289172633
  0.3328130032959038  0.1361104206684516  0.9999999846355863
  0.5309472286683388  0.5309552422692718  0.9999999535685973
  0.4690536343126226  0.9999971176073359  0.9999999222330302
  0.0000095102873985  0.4690580605013963  0.9999999212882713
  0.9155405700875150  0.9999970918900516  0.5000000399176017
  0.9999965813292349  0.9155403594290235  0.5000000402777829
  0.0844511431696802  0.0844527504853971  0.4999999986197281
  0.2481846290089962  0.6661320359241714  0.4999999875808570
  0.3338715427899146  0.5820535292368945  0.5000000198180601
  0.4179533047057760  0.7518236126642961  0.5000000133131834
  0.6661341101214049  0.2481818085252385  0.4999999880738386
  0.5820542845843022  0.3338747727229219  0.5000000224229098
  0.7518252849015425  0.4179538175514281  0.5000000145840175
  0.8640536695006844  0.8640572947584175  0.0000001592698879
  0.1359418288571206  0.0000025554207923  0.0000000203197672
  0.0000041642928039  0.1359447989912681  0.0000000181843234
  0.1354144242050452  0.6656903018474836  0.9999999382632012
  0.3343074339856500  0.4697259702287155  0.9999999919456428
  0.5302735835700929  0.8645783798451561  0.9999999982658210
  0.6656938198835292  0.1354125137966804  0.9999999379513937
  0.4697209842574495  0.3343051493371760  0.9999999930673980
  0.8645790268967630  0.5302758481696586  0.9999999982462882
  0.1975753042197397  0.5301180356361783  0.9999999426787767
  0.4698832372691299  0.6674618002903756  0.0000000428443201
  0.3325336160865362  0.8024150130289058  0.9999999470607293
  0.5301190229539898  0.1975730031785901  0.9999999435051521
  0.6674570579584511  0.4698841120344923  0.0000000426146372
  0.8024208616226005  0.3325335457579897  0.9999999516932192
  0.8036668038247257  0.9999998666442096  0.0000001419997133
  0.9999980701669671  0.8036662693952010  0.0000001381488914
  0.1963351712391841  0.1963364259391724  0.9999999468054881
  0.0000016693904357  0.5828674469119193  0.5000000016576038
  0.4171355170919924  0.4171376914040934  0.4999999288608450
  0.5828688710712413  0.9999994806427281  0.5000000028077167
  0.6670910219986936  0.9150576467172229  0.5000000389760260
  0.0849306945125505  0.7520317547171729  0.5000000319084776
  0.2479703267193472  0.3329056440096352  0.4999999733841420
  0.9150611331651817  0.6670940079432128  0.5000000392994508
  0.7520318474000547  0.0849274941316338  0.5000000322926894
  0.3329020923553330  0.2479711769559927  0.4999999726884070
  0.3333358565070057  0.6666678810025317  0.0000000174417423
  0.6666687512951839  0.3333348711445083  0.0000000171499366
  0.9999972766514276  0.9999973313206496  0.0000000184252968
  0.6666086883646685  0.6666109021792010  0.0000000856552091
  0.3333924239428541  0.0000006037939144  0.9999999864542772
  0.0000031515900858  0.3333910326043110  0.9999999895927374
  0.5554374283536916  0.7781653147432479  0.4999999848261893
  0.2218300773090931  0.7772691432688532  0.4999999334808294
  0.2227307964289338  0.4445627403331969  0.4999999617404001
  0.7781674345917793  0.5554421405762895  0.4999999841519553
  0.7772735123768868  0.2218282544876118  0.4999999360450076
  0.4445616948862892  0.2227320575863772  0.4999999614842494
  0.7782794635903372  0.8889563386568895  0.5000000653583356
  0.1110409111824495  0.8893238211562107  0.5000000002862848
  0.1106766239421972  0.2217218639283232  0.4999999379206059
  0.8889540460703031  0.7782796560569096  0.5000000640742925
  0.8893241018564666  0.1110406383517173  0.5000000021319124
  0.2217193421880665  0.1106754302016242  0.4999999383742519
  0.4451208733873884  0.5555827326918958  0.4999999444849692
  0.4444204492004573  0.8895421406427033  0.4999999539113134
  0.1104622382434144  0.5548827804375733  0.4999998701368327
  0.5555791915670127  0.4451231303259675  0.4999999442384322
  0.8895444931604501  0.4444203109086899  0.4999999546070981
  0.5548821106564574  0.1104555468143005  0.4999998698058263
  0.6677474012837976  0.9999949289126633  0.0000000241514755
  0.9999983623707251  0.6677463467400813  0.0000000227949712
  0.3322540008565724  0.3322561863018549  0.9999999532333561
 
  0.00000000E+00  0.00000000E+00  0.00000000E+00
  0.00000000E+00  0.00000000E+00  0.00000000E+00
  0.00000000E+00  0.00000000E+00  0.00000000E+00
  0.00000000E+00  0.00000000E+00  0.00000000E+00
  0.00000000E+00  0.00000000E+00  0.00000000E+00
  0.00000000E+00  0.00000000E+00  0.00000000E+00
  0.00000000E+00  0.00000000E+00  0.00000000E+00
  0.00000000E+00  0.00000000E+00  0.00000000E+00
  0.00000000E+00  0.00000000E+00  0.00000000E+00
  0.00000000E+00  0.00000000E+00  0.00000000E+00
  0.00000000E+00  0.00000000E+00  0.00000000E+00
  0.00000000E+00  0.00000000E+00  0.00000000E+00
  0.00000000E+00  0.00000000E+00  0.00000000E+00
  0.00000000E+00  0.00000000E+00  0.00000000E+00
  0.00000000E+00  0.00000000E+00  0.00000000E+00
  0.00000000E+00  0.00000000E+00  0.00000000E+00
  0.00000000E+00  0.00000000E+00  0.00000000E+00
  0.00000000E+00  0.00000000E+00  0.00000000E+00
  0.00000000E+00  0.00000000E+00  0.00000000E+00
  0.00000000E+00  0.00000000E+00  0.00000000E+00
  0.00000000E+00  0.00000000E+00  0.00000000E+00
  0.00000000E+00  0.00000000E+00  0.00000000E+00
  0.00000000E+00  0.00000000E+00  0.00000000E+00
  0.00000000E+00  0.00000000E+00  0.00000000E+00
  0.00000000E+00  0.00000000E+00  0.00000000E+00
  0.00000000E+00  0.00000000E+00  0.00000000E+00
  0.00000000E+00  0.00000000E+00  0.00000000E+00
  0.00000000E+00  0.00000000E+00  0.00000000E+00
  0.00000000E+00  0.00000000E+00  0.00000000E+00
  0.00000000E+00  0.00000000E+00  0.00000000E+00
  0.00000000E+00  0.00000000E+00  0.00000000E+00
  0.00000000E+00  0.00000000E+00  0.00000000E+00
  0.00000000E+00  0.00000000E+00  0.00000000E+00
  0.00000000E+00  0.00000000E+00  0.00000000E+00
  0.00000000E+00  0.00000000E+00  0.00000000E+00
  0.00000000E+00  0.00000000E+00  0.00000000E+00
  0.00000000E+00  0.00000000E+00  0.00000000E+00
  0.00000000E+00  0.00000000E+00  0.00000000E+00
  0.00000000E+00  0.00000000E+00  0.00000000E+00
  0.00000000E+00  0.00000000E+00  0.00000000E+00
  0.00000000E+00  0.00000000E+00  0.00000000E+00
  0.00000000E+00  0.00000000E+00  0.00000000E+00
  0.00000000E+00  0.00000000E+00  0.00000000E+00
  0.00000000E+00  0.00000000E+00  0.00000000E+00
  0.00000000E+00  0.00000000E+00  0.00000000E+00
  0.00000000E+00  0.00000000E+00  0.00000000E+00
  0.00000000E+00  0.00000000E+00  0.00000000E+00
  0.00000000E+00  0.00000000E+00  0.00000000E+00
  0.00000000E+00  0.00000000E+00  0.00000000E+00
  0.00000000E+00  0.00000000E+00  0.00000000E+00
  0.00000000E+00  0.00000000E+00  0.00000000E+00
  0.00000000E+00  0.00000000E+00  0.00000000E+00
  0.00000000E+00  0.00000000E+00  0.00000000E+00
  0.00000000E+00  0.00000000E+00  0.00000000E+00
  0.00000000E+00  0.00000000E+00  0.00000000E+00
  0.00000000E+00  0.00000000E+00  0.00000000E+00
  0.00000000E+00  0.00000000E+00  0.00000000E+00
  0.00000000E+00  0.00000000E+00  0.00000000E+00
  0.00000000E+00  0.00000000E+00  0.00000000E+00
  0.00000000E+00  0.00000000E+00  0.00000000E+00
  0.00000000E+00  0.00000000E+00  0.00000000E+00
  0.00000000E+00  0.00000000E+00  0.00000000E+00
  0.00000000E+00  0.00000000E+00  0.00000000E+00
  0.00000000E+00  0.00000000E+00  0.00000000E+00
  0.00000000E+00  0.00000000E+00  0.00000000E+00
  0.00000000E+00  0.00000000E+00  0.00000000E+00
  0.00000000E+00  0.00000000E+00  0.00000000E+00
  0.00000000E+00  0.00000000E+00  0.00000000E+00
  0.00000000E+00  0.00000000E+00  0.00000000E+00
  0.00000000E+00  0.00000000E+00  0.00000000E+00
  0.00000000E+00  0.00000000E+00  0.00000000E+00
  0.00000000E+00  0.00000000E+00  0.00000000E+00
  0.00000000E+00  0.00000000E+00  0.00000000E+00
  0.00000000E+00  0.00000000E+00  0.00000000E+00
  0.00000000E+00  0.00000000E+00  0.00000000E+00
  0.00000000E+00  0.00000000E+00  0.00000000E+00
  0.00000000E+00  0.00000000E+00  0.00000000E+00
  0.00000000E+00  0.00000000E+00  0.00000000E+00
  0.00000000E+00  0.00000000E+00  0.00000000E+00
  0.00000000E+00  0.00000000E+00  0.00000000E+00
  0.00000000E+00  0.00000000E+00  0.00000000E+00
