Ca2 Fe6 P6 O26
1.0
7.406054 0.000000 -1.309886
0.000000 6.330000 0.000000
0.000000 0.000000 10.160000
Ca Fe P O
2 6 6 26
direct
0.661610 0.750000 0.195950 Ca2+
0.338390 0.250000 0.804050 Ca2+
0.000000 0.000000 0.000000 Fe3+
0.000000 0.500000 0.000000 Fe3+
0.350740 0.250000 0.201790 Fe3+
0.649260 0.750000 0.798210 Fe3+
0.786120 0.250000 0.436430 Fe3+
0.213880 0.750000 0.563570 Fe3+
0.682970 0.250000 0.112470 P5+
0.317030 0.750000 0.887530 P5+
0.263410 0.750000 0.239400 P5+
0.736590 0.250000 0.760600 P5+
0.217620 0.250000 0.488900 P5+
0.782380 0.750000 0.511100 P5+
0.491300 0.250000 0.031000 O2-
0.508700 0.750000 0.969000 O2-
0.640200 0.250000 0.256600 O2-
0.359800 0.750000 0.743400 O2-
0.789300 0.048900 0.093860 O2-
0.210700 0.548900 0.906140 O2-
0.210700 0.951100 0.906140 O2-
0.789300 0.451100 0.093860 O2-
0.085500 0.750000 0.134000 O2-
0.914500 0.250000 0.866000 O2-
0.212300 0.750000 0.377000 O2-
0.787700 0.250000 0.623000 O2-
0.379000 0.939000 0.213630 O2-
0.621000 0.439000 0.786370 O2-
0.621000 0.061000 0.786370 O2-
0.379000 0.561000 0.213630 O2-
0.025600 0.250000 0.408400 O2-
0.974400 0.750000 0.591600 O2-
0.351300 0.250000 0.393300 O2-
0.648700 0.750000 0.606700 O2-
0.752100 0.559900 0.414600 O2-
0.247900 0.059900 0.585400 O2-
0.247900 0.440100 0.585400 O2-
0.752100 0.940100 0.414600 O2-
0.123500 0.250000 0.092400 O2-
0.876500 0.750000 0.907600 O2-
