Ca19 V16 P24 O96                        
   1.00000000000000     
    -5.1912209999999996    7.3529770000000001    8.8787459999999996
     5.1018059999999998   -7.2862999999999998    8.7624110000000002
    10.2884949999999993    7.3471859999999998   -0.1596180000000000
   Ca   V    P    O 
    19    16    24    96
Direct
  0.5508732042092287  0.7212458265228857  0.4122423380357499
  0.5042568548037623  0.9804865019946317  0.0152238832462702
 -0.0046648686908956  0.9752183217237662  0.5253799953387112
  0.0013605890666242  0.4801961640699722  0.0181569263172768
  0.4802149289524881  0.0145526698114932  0.4914732610828232
  0.4764633687154595  0.5184705921940150  0.9921584813219438
  0.9764595073170240  0.5196997753816995  0.4874994044243570
  0.9786110496600413  0.0138134412212606  0.9949491436622521
  0.5728372967127916  0.4267872620850667  0.2570840937422583
  0.5679902850667041  0.9160123430388116  0.7394790170711434
  0.0743775351539500  0.9156200401708077  0.2458600139400419
  0.0668935324338807  0.4136683617112958  0.7358316219393274
  0.2729531086169625  0.5704620051598236  0.4426916491886443
  0.2570107491087388  0.0834072682721926  0.9281896431990295
  0.7472104627210958  0.0766075233888294  0.4203720731645474
  0.7521687892962794  0.5763678951915664  0.9249802473234306
  0.5799769104529022  0.2537716293282292  0.9204359042432128
  0.0739536587039001  0.2468372140628040  0.4204962326156070
  0.0754234774208386  0.7469993639654262  0.9185036408276210
  0.6409929066479587  0.6369713930569697  0.6468294258454130
  0.6431350436216831  0.1342478713336831  0.1466168331361296
  0.1446909788909741  0.1386713511517264  0.6430203088430007
  0.1462337801847929  0.6397959539687600  0.1384303366319316
  0.1452308051235324  0.1479489083572715  0.1458132186033818
  0.1444469295393576  0.6462457691452144  0.6449763062051647
  0.6483531662595041  0.6463862031492833  0.1486498191465485
  0.6461091985705079  0.1479278264400725  0.6476527959652982
  0.8567865825571936  0.8581789851825943  0.8447603061966547
  0.8502683960223054  0.3511998138639238  0.3503071816660073
  0.3544214139720369  0.3555807018680613  0.8467932970563061
  0.3489746087670372  0.8579988731903784  0.3509763839913501
  0.3499868450515540  0.3475649236684076  0.3516773852571756
  0.3500943009293095  0.8495253239619418  0.8529962975940306
  0.8529231732895827  0.8452071646629469  0.3472056705086172
  0.8498011999699152  0.3486843234422667  0.8511935064519600
  0.4009482832960127  0.7510481922257839  0.5982182767319582
  0.4028997373971870  0.2494691458720209  0.0945050314112293
  0.8995217960543462  0.2455602296699003  0.5940302896170608
  0.9015786087029062  0.7497859804822331  0.0929035428523814
  0.3935265783678183  0.5959371814964100  0.2400314582762185
  0.4032678856871419  0.1015120970138104  0.7549760794199059
  0.9022827326764469  0.0990219805478477  0.2537351491365800
  0.9008520422521117  0.6015163156129874  0.7536349104924112
  0.6057765488295032  0.4053804497413870  0.7555748137968302
  0.6039149568921126  0.8970475004952674  0.2609643912259679
  0.1090611166022415  0.9043440016849216  0.7613678904403807
  0.1053908624051903  0.4060796700804460  0.2606855229234523
  0.2401040295027062  0.3900363881968083  0.5935964372668189
  0.2412210491102528  0.8946864846475490  0.0932501249449406
  0.7502181436459215  0.8976008641513407  0.5997688441305385
  0.7413932944257521  0.3943022468912584  0.0965304958931515
  0.7493044075583074  0.5972908972431898  0.3957129273294649
  0.7368268713741307  0.0912124371373499  0.8907268086959955
  0.2352463419286265  0.0929306467509004  0.3917825289309281
  0.2341125673583833  0.5904461611313311  0.8878214903890754
  0.5949285003598660  0.2362509103586104  0.3925274231042712
  0.5998377781515494  0.7436658904021672  0.8919249077551265
  0.1057770722526431  0.7513936328346935  0.3947619774418306
  0.1023245831275674  0.2463346160067643  0.8933200098795466
  0.6817829083123373  0.6215120458317718  0.4929247720433624
  0.6575068710698591  0.0816039808558941  0.9835931960702933
  0.1554186452935106  0.0788170331999318  0.4838266145908834
  0.1542415115944681  0.5797076280219753  0.9806432324778135
  0.1605645423606661  0.4864862553276645  0.5789012768024556
  0.1607058832842772  0.9881511898191515  0.0768520941975791
  0.6680073105238342  0.9900769455593961  0.5817869120945083
  0.6598767094481597  0.4867005089175677  0.0786073533957139
  0.4914776101142151  0.6716078191793935  0.5815535287817080
  0.4900327927003066  0.1639159998554895  0.0751535089114034
  0.9873514284638901  0.1604168992795315  0.5768474878811504
  0.9894719103271920  0.6651550071303117  0.0755490021205634
  0.5889671744991954  0.1672729127206570  0.4930730951151854
  0.5962441545297710  0.6689329313051846  0.9880201223815507
  0.1004349629937957  0.6608023849577063  0.4762795678859977
  0.0888026858475037  0.1633358095438077  0.9819001937194660
  0.6028329285607953  0.4832244656394918  0.6668727740014688
  0.5928983939497233  0.9712176453247551  0.1673510843111278
  0.0983846812358426  0.9808119308688608  0.6702491225975274
  0.0914020278063127  0.4843141455994078  0.1709941219971108
  0.4917427444386080  0.5845761310837431  0.1686408525424461
  0.4860511158658388  0.0786023416466641  0.6687177965713332
  0.9872091902970055  0.0781828507483051  0.1692178924150970
  0.9812609098282278  0.5801823417222108  0.6644785591210979
  0.5098526758503631  0.4170898765228458  0.8329894851570335
  0.5117234773297150  0.9094523984038353  0.3404977569305487
  0.0154918597468608  0.9162658300701017  0.8398104296813400
  0.0104383137095818  0.4145545376022542  0.3386031558043762
  0.5077777058826071  0.3180984628620254  0.3892892388941167
  0.5131608721887175  0.8292006091031215  0.9013683849980477
  0.0113904531393839  0.8287704919273656  0.4071822167566971
  0.0188147057634601  0.3351584767292620  0.9034015251541618
  0.8132729860639284  0.4969319356897097  0.4134223410060447
  0.8269167526710731  0.0135595061368190  0.9035418676628654
  0.3277300786062743  0.0175762532418230  0.4015179260697209
  0.3234841207988499  0.5119099899676283  0.8996247473729988
  0.4068589409524251  0.5041262339502063  0.3209880240337776
  0.4179910757025340  0.0092388152852457  0.8378188161758533
  0.9159825496536301  0.0079971958116505  0.3375246048396592
  0.9177063137313357  0.5091708669231934  0.8357857545986401
  0.4163438736810497  0.8309768609286560  0.5050159002414487
  0.4219931621719099  0.3323681055178958  0.0046719426118132
  0.9208293599255422  0.3288318047388710  0.5056501015550510
  0.9191459515051561  0.8306798172700629  0.0020745589844407
  0.3232587191651077  0.4036287832980298  0.5089717144248671
  0.3302387110718855  0.9147592434215654  0.0130832828892014
  0.8210373011438494  0.9014710764638330  0.5011355087610109
  0.8278065974501937  0.4127053583097254  0.0121074120241465
  0.2965926241001621  0.6888968758205193  0.5885034163124175
  0.2975398063996180  0.1886427292536738  0.0832620049431508
  0.7947685326255506  0.1854232630353731  0.5788091212873553
  0.7967390938576446  0.6890053937497538  0.0817628854541658
  0.7877434091420288  0.6008562210646714  0.7173569433226269
  0.7924065327808194  0.0967226656173984  0.2087691857682762
  0.2919075515032210  0.1017945222385814  0.7134210391795882
  0.2967341303459753  0.5900787494405216  0.1714187133155208
  0.1082773990437117  0.2906532753887639  0.2223449532834872
  0.1102410420464724  0.7885584099887671  0.7244302779548661
  0.6008018084303905  0.7798903713647525  0.2278804903682460
  0.6082460045354545  0.2880591023279597  0.7222859730076817
  0.6759847965944505  0.8011803945496985  0.6153334399148477
  0.6756179063781369  0.2915283502343251  0.0817400625752931
  0.1640666824397601  0.2928347523945748  0.5798678669070372
  0.1738496820253746  0.7938724412947487  0.0718227384158476
  0.6655213692767545  0.5832251226302660  0.3058030132573359
  0.6687148817495514  0.0661252925267917  0.7920128687122657
  0.1668886264254362  0.0714601473323292  0.2924707762229009
  0.1634383095765424  0.5682164302132617  0.7902994429643504
  0.5830332592786663  0.6712470013744631  0.7956332660064097
  0.5909507526251262  0.1515584689900183  0.3031958279373142
  0.0882137550079045  0.1906640607345302  0.7870589561852820
  0.1036667485494916  0.7048219176975347  0.2833348400687757
  0.4168251754666684  0.3105990323830203  0.1985213468091090
  0.4114085002123098  0.8175548484994767  0.7001885245141628
  0.9163133998890272  0.8147632632652598  0.1952398064180031
  0.9105939285202501  0.3071028917221184  0.6988183057020233
  0.3929657605804887  0.6952250427079230  0.3150163729531181
  0.4238149692459056  0.2023411267520037  0.8227539083429779
  0.9206493129895287  0.2016089773975540  0.3194473387165692
  0.9231158509048014  0.7033835963201154  0.8190852981436058
  0.2032696204104171  0.4311654813337495  0.3294308054377726
  0.2059847150874882  0.9282984090532241  0.8320642210891847
  0.7049668167626677  0.9202336797834012  0.3251688947706232
  0.7004956225146057  0.4222018689746554  0.8346256255677057
  0.8223707116490291  0.9157784047769383  0.6940573535405948
  0.7851414821736711  0.4029092584192566  0.2070871200108488
  0.2796369398089931  0.3909757666193528  0.7058827283554395
  0.2793652203787214  0.8953182878815876  0.2058548699947175
  0.2702836432894819  0.2094903718745121  0.3924087257894598
  0.2727753918976183  0.7056993106869908  0.8871725101383077
  0.8255570609804412  0.6883237144807910  0.3735075279094124
  0.7740210347677903  0.2068405222768942  0.8886464103011477
  0.7017857470309399  0.2931976034474279  0.3863561903354966
  0.7046897343383721  0.8033498912822400  0.8831907109464924
  0.2036335261904349  0.8209792420871606  0.4107412056433244
  0.2129526064891978  0.2936581482186331  0.9027948395399831
 
             NaN             NaN             NaN
             NaN             NaN             NaN
             NaN             NaN             NaN
             NaN             NaN             NaN
             NaN             NaN             NaN
             NaN             NaN             NaN
             NaN             NaN             NaN
             NaN             NaN             NaN
             NaN             NaN             NaN
             NaN             NaN             NaN
             NaN             NaN             NaN
             NaN             NaN             NaN
             NaN             NaN             NaN
             NaN             NaN             NaN
             NaN             NaN             NaN
             NaN             NaN             NaN
             NaN             NaN             NaN
             NaN             NaN             NaN
             NaN             NaN             NaN
             NaN             NaN             NaN
             NaN             NaN             NaN
             NaN             NaN             NaN
             NaN             NaN             NaN
             NaN             NaN             NaN
             NaN             NaN             NaN
             NaN             NaN             NaN
             NaN             NaN             NaN
             NaN             NaN             NaN
             NaN             NaN             NaN
             NaN             NaN             NaN
             NaN             NaN             NaN
             NaN             NaN             NaN
             NaN             NaN             NaN
             NaN             NaN             NaN
             NaN             NaN             NaN
             NaN             NaN             NaN
             NaN             NaN             NaN
             NaN             NaN             NaN
             NaN             NaN             NaN
             NaN             NaN             NaN
             NaN             NaN             NaN
             NaN             NaN             NaN
             NaN             NaN             NaN
             NaN             NaN             NaN
             NaN             NaN             NaN
             NaN             NaN             NaN
             NaN             NaN             NaN
             NaN             NaN             NaN
             NaN             NaN             NaN
             NaN             NaN             NaN
             NaN             NaN             NaN
             NaN             NaN             NaN
             NaN             NaN             NaN
             NaN             NaN             NaN
             NaN             NaN             NaN
             NaN             NaN             NaN
             NaN             NaN             NaN
             NaN             NaN             NaN
             NaN             NaN             NaN
             NaN             NaN             NaN
             NaN             NaN             NaN
             NaN             NaN             NaN
             NaN             NaN             NaN
             NaN             NaN             NaN
             NaN             NaN             NaN
             NaN             NaN             NaN
             NaN             NaN             NaN
             NaN             NaN             NaN
             NaN             NaN             NaN
             NaN             NaN             NaN
             NaN             NaN             NaN
             NaN             NaN             NaN
             NaN             NaN             NaN
             NaN             NaN             NaN
             NaN             NaN             NaN
             NaN             NaN             NaN
             NaN             NaN             NaN
             NaN             NaN             NaN
             NaN             NaN             NaN
             NaN             NaN             NaN
             NaN             NaN             NaN
             NaN             NaN             NaN
             NaN             NaN             NaN
             NaN             NaN             NaN
             NaN             NaN             NaN
             NaN             NaN             NaN
             NaN             NaN             NaN
             NaN             NaN             NaN
             NaN             NaN             NaN
             NaN             NaN             NaN
             NaN             NaN             NaN
             NaN             NaN             NaN
             NaN             NaN             NaN
             NaN             NaN             NaN
             NaN             NaN             NaN
             NaN             NaN             NaN
             NaN             NaN             NaN
             NaN             NaN             NaN
             NaN             NaN             NaN
             NaN             NaN             NaN
             NaN             NaN             NaN
             NaN             NaN             NaN
             NaN             NaN             NaN
             NaN             NaN             NaN
             NaN             NaN             NaN
             NaN             NaN             NaN
             NaN             NaN             NaN
             NaN             NaN             NaN
             NaN             NaN             NaN
             NaN             NaN             NaN
             NaN             NaN             NaN
             NaN             NaN             NaN
             NaN             NaN             NaN
             NaN             NaN             NaN
             NaN             NaN             NaN
             NaN             NaN             NaN
             NaN             NaN             NaN
             NaN             NaN             NaN
             NaN             NaN             NaN
             NaN             NaN             NaN
             NaN             NaN             NaN
             NaN             NaN             NaN
             NaN             NaN             NaN
             NaN             NaN             NaN
             NaN             NaN             NaN
             NaN             NaN             NaN
             NaN             NaN             NaN
             NaN             NaN             NaN
             NaN             NaN             NaN
             NaN             NaN             NaN
             NaN             NaN             NaN
             NaN             NaN             NaN
             NaN             NaN             NaN
             NaN             NaN             NaN
             NaN             NaN             NaN
             NaN             NaN             NaN
             NaN             NaN             NaN
             NaN             NaN             NaN
             NaN             NaN             NaN
             NaN             NaN             NaN
             NaN             NaN             NaN
             NaN             NaN             NaN
             NaN             NaN             NaN
             NaN             NaN             NaN
             NaN             NaN             NaN
             NaN             NaN             NaN
             NaN             NaN             NaN
             NaN             NaN             NaN
             NaN             NaN             NaN
             NaN             NaN             NaN
             NaN             NaN             NaN
             NaN             NaN             NaN
             NaN             NaN             NaN
             NaN             NaN             NaN
             NaN             NaN             NaN
