Ca19 V16 P24 O96
1.0
-5.191221 7.352977 8.878746
5.101806 -7.286300 8.762411
10.288495 7.347186 -0.159618
Ca V P O
19 16 24 96
direct
0.548866 0.674553 0.442111 Ca
0.504394 0.980049 0.018471 Ca
0.003066 0.976520 0.518371 Ca
0.001854 0.479632 0.018315 Ca
0.483268 0.015047 0.490233 Ca
0.474325 0.515139 0.997478 Ca
0.981998 0.519206 0.488155 Ca
0.978254 0.015244 0.993712 Ca
0.573502 0.427267 0.259059 Ca
0.570541 0.915709 0.739663 Ca
0.074484 0.914413 0.243525 Ca
0.068432 0.415259 0.737015 Ca
0.276776 0.574197 0.443259 Ca
0.255843 0.082261 0.925620 Ca
0.750793 0.077404 0.422862 Ca
0.754512 0.577509 0.926182 Ca
0.578510 0.251360 0.920813 Ca
0.074312 0.247016 0.420098 Ca
0.074857 0.746854 0.918118 Ca
0.640147 0.636838 0.640405 V
0.646162 0.137109 0.146217 V
0.145553 0.138759 0.642763 V
0.147416 0.640199 0.138593 V
0.146851 0.147858 0.145869 V
0.145203 0.647176 0.644834 V
0.647527 0.647934 0.145704 V
0.645536 0.149033 0.647727 V
0.853848 0.856463 0.847189 V
0.851508 0.355377 0.350451 V
0.354087 0.355839 0.848141 V
0.351065 0.857860 0.351091 V
0.348564 0.348665 0.350225 V
0.350874 0.849642 0.851540 V
0.851393 0.848493 0.349653 V
0.849648 0.348613 0.850452 V
0.400769 0.753690 0.596834 P
0.402417 0.248620 0.094782 P
0.900741 0.246583 0.593721 P
0.901777 0.748999 0.093782 P
0.396423 0.599185 0.243953 P
0.403371 0.101322 0.754393 P
0.903442 0.099673 0.252677 P
0.900046 0.601154 0.751202 P
0.604826 0.406151 0.758671 P
0.605155 0.899739 0.259950 P
0.107053 0.903904 0.760238 P
0.107760 0.406384 0.260871 P
0.241571 0.390749 0.593783 P
0.242086 0.894934 0.092465 P
0.742999 0.894671 0.593041 P
0.742394 0.394757 0.095786 P
0.743417 0.596824 0.394920 P
0.736494 0.091867 0.890903 P
0.236935 0.093400 0.390170 P
0.234919 0.591333 0.887975 P
0.597986 0.243336 0.393857 P
0.601345 0.746584 0.891679 P
0.105987 0.751785 0.393763 P
0.101963 0.247103 0.894175 P
0.666823 0.591690 0.488319 O
0.657988 0.081384 0.984426 O
0.158506 0.079703 0.483515 O
0.155035 0.579961 0.980722 O
0.162784 0.487323 0.578930 O
0.161109 0.988299 0.076818 O
0.661973 0.988710 0.577510 O
0.660205 0.486861 0.080324 O
0.487801 0.670459 0.579631 O
0.491374 0.164816 0.077317 O
0.988264 0.161367 0.574607 O
0.989822 0.664512 0.075484 O
0.593586 0.170500 0.490617 O
0.592552 0.660982 0.978258 O
0.104055 0.662195 0.476085 O
0.089860 0.164982 0.983654 O
0.596288 0.485440 0.671331 O
0.594409 0.978821 0.170202 O
0.096757 0.980502 0.669110 O
0.093511 0.483609 0.170359 O
0.492866 0.586988 0.170396 O
0.486206 0.080670 0.667808 O
0.988991 0.081029 0.168434 O
0.983348 0.581778 0.664215 O
0.510751 0.416237 0.837967 O
0.511582 0.910622 0.337654 O
0.013125 0.916082 0.838189 O
0.012820 0.413841 0.338506 O
0.504464 0.317263 0.391810 O
0.514161 0.831082 0.904766 O
0.009250 0.825498 0.406741 O
0.016205 0.333803 0.902551 O
0.825461 0.508829 0.404021 O
0.826479 0.013801 0.901630 O
0.330324 0.019326 0.399138 O
0.324688 0.513275 0.899576 O
0.409442 0.504918 0.323020 O
0.418968 0.008941 0.836713 O
0.919137 0.007541 0.335086 O
0.916699 0.507886 0.832410 O
0.415081 0.835929 0.506397 O
0.420947 0.330966 0.004683 O
0.921092 0.331061 0.506079 O
0.920822 0.831663 0.004474 O
0.325914 0.404935 0.509734 O
0.329691 0.915135 0.010840 O
0.826926 0.912855 0.507273 O
0.827664 0.414872 0.010381 O
0.295034 0.693465 0.587631 O
0.298270 0.186032 0.081756 O
0.795480 0.187114 0.579436 O
0.797245 0.687796 0.081104 O
0.788636 0.600661 0.709962 O
0.794459 0.095369 0.205963 O
0.291862 0.100384 0.713031 O
0.298485 0.593727 0.176844 O
0.111938 0.290585 0.223708 O
0.107321 0.787977 0.723632 O
0.604785 0.786250 0.218438 O
0.607341 0.289571 0.723240 O
0.673237 0.794991 0.582169 O
0.676706 0.292130 0.079340 O
0.166148 0.293626 0.578992 O
0.173608 0.794466 0.072310 O
0.671562 0.580445 0.296573 O
0.666716 0.069059 0.792838 O
0.167194 0.070016 0.292158 O
0.164377 0.569029 0.790339 O
0.589957 0.692740 0.784275 O
0.601610 0.165466 0.301415 O
0.091122 0.187689 0.789475 O
0.103934 0.703039 0.283553 O
0.413581 0.311396 0.198013 O
0.413430 0.817981 0.700123 O
0.914950 0.811230 0.197795 O
0.913384 0.306582 0.699093 O
0.396705 0.696609 0.319899 O
0.422021 0.202063 0.823113 O
0.918214 0.201290 0.321034 O
0.919451 0.701425 0.820531 O
0.204827 0.433573 0.330149 O
0.204380 0.926987 0.830770 O
0.704699 0.922480 0.327337 O
0.701826 0.424817 0.833121 O
0.791487 0.900390 0.700905 O
0.789055 0.400210 0.204870 O
0.281493 0.391414 0.705808 O
0.282792 0.895371 0.204162 O
0.269882 0.210478 0.389600 O
0.272639 0.706847 0.887302 O
0.799149 0.704143 0.392240 O
0.774501 0.207205 0.889684 O
0.697467 0.311685 0.390461 O
0.707656 0.803115 0.899635 O
0.201277 0.825914 0.406648 O
0.210190 0.299747 0.903424 O
