Mn2 P8                                  
   1.00000000000000     
     5.6384568831964232    0.0276561455104299   -1.7040285511220219
    -2.4119209782595541    4.5097296773454740   -0.2888601157617254
     0.0563843271868750    0.1157230654403271    5.9117679393725169
   Mn   P 
     2     8
Direct
  0.7494943056483976  0.7501319555112502  0.2496850280835190
  0.2504187662188642  0.2498050267783611  0.7502830484076384
  0.8990383116830714  0.7735809791041461  0.6632499608200391
  0.1010041363592151  0.2264631203396448  0.3367812236325634
  0.6016706865157673  0.7258659418027875  0.8362969843634502
  0.3983786887724889  0.2741932406566718  0.1637288196382300
  0.5317187785055495  0.0792604007780113  0.6947218229148149
  0.4682816720560439  0.9207265154552360  0.3052702538333918
  0.9686167964514141  0.4201285220126323  0.8054023795674183
  0.0313778577891810  0.5798442975612517  0.1945804787389420
 
  0.00000000E+00  0.00000000E+00  0.00000000E+00
  0.00000000E+00  0.00000000E+00  0.00000000E+00
  0.00000000E+00  0.00000000E+00  0.00000000E+00
  0.00000000E+00  0.00000000E+00  0.00000000E+00
  0.00000000E+00  0.00000000E+00  0.00000000E+00
  0.00000000E+00  0.00000000E+00  0.00000000E+00
  0.00000000E+00  0.00000000E+00  0.00000000E+00
  0.00000000E+00  0.00000000E+00  0.00000000E+00
  0.00000000E+00  0.00000000E+00  0.00000000E+00
  0.00000000E+00  0.00000000E+00  0.00000000E+00
