Ca1 Co4 S6 O24                          
   1.00000000000000     
     7.5032779999999999    0.1792360000000000    4.6072649999999999
     2.6793130000000001    6.9924569999999999    4.6213600000000001
     0.2864270000000000    0.1684980000000000    8.7852160000000001
   Ca   Co   S    O 
     1     4     6    24
Direct
  0.2675362335388236  0.7837835802420516  0.5517730792710817
  0.6550778125078864  0.6425248846128111  0.6432979354168123
  0.1363524356485130  0.1589379210356250  0.1348112930675668
  0.8346366608726641  0.8449507275529183  0.8548534921659087
  0.3582090830077874  0.3422795657462165  0.3637624045176507
  0.9682539855442704  0.2509980749702747  0.5215512789238809
  0.4443892144949993  0.0278500290744831  0.7558318339600696
  0.5521786687203073  0.9705723714832395  0.2358220048030329
  0.7388518137270730  0.4624492292547312  0.0569285151916753
  0.2586958663313226  0.5236839204173054  0.9529719205339425
  0.0327400431394450  0.7430502022754770  0.4598545762349798
  0.4240436037873186  0.5683681110718467  0.7695932372475103
  0.9258161628100043  0.2970786567262760  0.0422963172029305
  0.7885601297232758  0.3761609122031757  0.6198225812528818
  0.0307889790230997  0.9430687704530022  0.3510376740538731
  0.5939584428942678  0.7715410216798015  0.3840471974370352
  0.3096848235105658  0.0047417147983590  0.9579126286246686
  0.6927125519531571  0.9792304215830198  0.0411936899547372
  0.2292160443140264  0.6128130289011502  0.3828222067848368
  0.0862373813897268  0.6982233893887996  0.9199023343312770
  0.3794324163751880  0.2282930431031036  0.6256869165223861
  0.9861160835741234  0.0439414148814066  0.6396644489220932
  0.5898006870165119  0.3973414395705475  0.2428791762959423
  0.9782596775601512  0.3006743698305465  0.3289445673210066
  0.4569906764601749  0.8926578341764009  0.6966234286551481
  0.3542309000812859  1.0175122614428058  0.2503919886400909
  0.6896232498236253  0.5229870172764168  0.8947934245737053
  0.2537506215262349  0.3577696067114157  0.9572272817180244
  0.8846453950246405  0.7206487417222353  0.4546543630841886
  0.1354276760470830  0.2678001907342754  0.5056565866997128
  0.6395195290039382 -0.0180280082531835  0.7413534558071870
  0.5456241037704364  0.1047395264122807  0.2880314845976241
  0.7482971613334921  0.6211063924194175  0.0602680592066009
  0.2860769934260378  0.4875731685553534  0.1182201019381411
  0.0038816496497851  0.6946809960386896  0.6633909750143852
 
             NaN             NaN             NaN
             NaN             NaN             NaN
             NaN             NaN             NaN
             NaN             NaN             NaN
             NaN             NaN             NaN
             NaN             NaN             NaN
             NaN             NaN             NaN
             NaN             NaN             NaN
             NaN             NaN             NaN
             NaN             NaN             NaN
             NaN             NaN             NaN
             NaN             NaN             NaN
             NaN             NaN             NaN
             NaN             NaN             NaN
             NaN             NaN             NaN
             NaN             NaN             NaN
             NaN             NaN             NaN
             NaN             NaN             NaN
             NaN             NaN             NaN
             NaN             NaN             NaN
             NaN             NaN             NaN
             NaN             NaN             NaN
             NaN             NaN             NaN
             NaN             NaN             NaN
             NaN             NaN             NaN
             NaN             NaN             NaN
             NaN             NaN             NaN
             NaN             NaN             NaN
             NaN             NaN             NaN
             NaN             NaN             NaN
             NaN             NaN             NaN
             NaN             NaN             NaN
             NaN             NaN             NaN
             NaN             NaN             NaN
             NaN             NaN             NaN
