Ca1 Co4 S6 O24                          
   1.00000000000000     
     7.5032779999999999    0.1792360000000000    4.6072649999999999
     2.6793130000000001    6.9924569999999999    4.6213600000000001
     0.2864270000000000    0.1684980000000000    8.7852160000000001
   Ca   Co   S    O 
     1     4     6    24
Direct
  0.3239920374329607  0.7028532072948536  0.5295037735653476
  0.6524011965282304  0.6392523114515835  0.6518730990702249
  0.1414193556370751  0.1508939715151958  0.1421260208298385
  0.8395505630495258  0.8558166545945736  0.8473814384619446
  0.3584559047082894  0.3474063013703523  0.3587284627436563
  0.9646853202049152  0.2449638229076461  0.5269969322060200
  0.4511651312651194  0.0369629381624436  0.7505623416710110
  0.5462468564763440  0.9676139480780512  0.2432217395837673
  0.7423936192386594  0.4612612426322288  0.0515984965016416
  0.2497788879285477  0.5338481423249281  0.9640413217737011
  0.0297393003207046  0.7489637342072457  0.4512764026139283
  0.4166060487220424  0.5743980687765983  0.7786663966040480
  0.9301749610927814  0.3033746834511516  0.0352702856978297
  0.7786742551589340  0.3791734297087617  0.6099950890180839
  0.0139572665901852  0.9467745899392883  0.3169027655119328
  0.6070674261029153  0.7680858483338830  0.3850626546397767
  0.3222249962185201  0.0158172636892096  0.9556795921892287
  0.6756674551453095  0.9830100377068013  0.0445503724111046
  0.2326000458377002  0.6167070415542016  0.3845662247899007
  0.0753196526488262  0.7009749433079508  0.9357320554862174
  0.3732276463852794  0.2358009917408601  0.6229519315809279
  0.9855444160306960  0.0405823308008529  0.6582132694728738
  0.5958343550807166  0.4035668328082100  0.2449835422930176
  0.9734480559970633  0.2724493667047013  0.3410154213023571
  0.4631674725246624  0.8940470049962083  0.7032445357025349
  0.3486518389747958  0.9940192442549245  0.2749291196784535
  0.6842099871367797  0.5055702476778600  0.9013156298597506
  0.2486620811495230  0.3612102325829669  0.9779099470975920
  0.8932947098942232  0.6921833777219539  0.4699448454293551
  0.1257238469455078  0.2787536861602736  0.4972515011854788
  0.6457235675290183  0.0054017195940376  0.7216381913366241
  0.5364275123830482  0.1082206846691832  0.2892708955070361
  0.7502375533181963  0.6335500581281743  0.0332465385785219
  0.2809998400812559  0.5086092040358811  0.1223559695049192
  0.0060298218710454  0.7242084109784571  0.6444537919432272
 
             NaN             NaN             NaN
             NaN             NaN             NaN
             NaN             NaN             NaN
             NaN             NaN             NaN
             NaN             NaN             NaN
             NaN             NaN             NaN
             NaN             NaN             NaN
             NaN             NaN             NaN
             NaN             NaN             NaN
             NaN             NaN             NaN
             NaN             NaN             NaN
             NaN             NaN             NaN
             NaN             NaN             NaN
             NaN             NaN             NaN
             NaN             NaN             NaN
             NaN             NaN             NaN
             NaN             NaN             NaN
             NaN             NaN             NaN
             NaN             NaN             NaN
             NaN             NaN             NaN
             NaN             NaN             NaN
             NaN             NaN             NaN
             NaN             NaN             NaN
             NaN             NaN             NaN
             NaN             NaN             NaN
             NaN             NaN             NaN
             NaN             NaN             NaN
             NaN             NaN             NaN
             NaN             NaN             NaN
             NaN             NaN             NaN
             NaN             NaN             NaN
             NaN             NaN             NaN
             NaN             NaN             NaN
             NaN             NaN             NaN
             NaN             NaN             NaN
