Si4 Ni8 O16                             
   1.00000000000000     
     4.7135159300773930   -0.0000000903495633    0.0000005263412391
    -0.0000002030636314   10.1020063512944169   -0.0000007787339676
     0.0000006574798455   -0.0000004447767072    5.8993276015959664
   Si   Ni   O 
     4     8    16
Direct
  0.0713020940174474  0.5945438528105029  0.2500001231980278
  0.4287264593019984  0.0946065483075245  0.2499999259194610
  0.9287263753130119  0.4053934691275032  0.7499999458334656
  0.5713022059540478  0.9054561509973738  0.7499999961356210
  0.5001329106248846  0.5000352869181057  0.9999196984652698
  0.0001335112602519  0.9999645887098367  0.4999193205694965
  0.5001332864385475  0.5000353745876254  0.5000805643431931
  0.0001330277390466  0.9999647190923682  0.0000803802630500
  0.5040637870532620  0.7732400237872454  0.2500001009455346
  0.9958212121570185  0.2732414179501390  0.2499999168620235
  0.4958212040631054  0.2267585917331516  0.7499999041886909
  0.0040638777438957  0.7267600339434139  0.7500001561355063
  0.7287725908265585  0.5935325851114825  0.2500000406063236
  0.7712185042732145  0.0935632811581613  0.2499999809870417
  0.2712184488564873  0.4064367050812336  0.7499999826818282
  0.2287726728800124  0.9064674140967739  0.7499999949455471
  0.2831059810579930  0.9452052210440343  0.2499999205970269
  0.2169659864843183  0.4451861582025316  0.2500000326981677
  0.7169660881701745  0.0548138331522452  0.7499998867575073
  0.7831058963801425  0.5547947769281762  0.7500001289247606
  0.2239627600425464  0.6634694522292293  0.0293903962633024
  0.2759157061276838  0.1634795358793966  0.4705658211530093
  0.7759157178271892  0.3365204872000689  0.5294340295559365
  0.7239627389754943  0.8365305829751080  0.9706097520384134
  0.7759156437224775  0.3365204223675775  0.9705657560270566
  0.7239628295673697  0.8365305337620370  0.5293902488981388
  0.2239627233822858  0.6634694256596134  0.4706098740020437
  0.2759157597595348  0.1634795271875475  0.0294341210045559
 
  0.00000000E+00  0.00000000E+00  0.00000000E+00
  0.00000000E+00  0.00000000E+00  0.00000000E+00
  0.00000000E+00  0.00000000E+00  0.00000000E+00
  0.00000000E+00  0.00000000E+00  0.00000000E+00
  0.00000000E+00  0.00000000E+00  0.00000000E+00
  0.00000000E+00  0.00000000E+00  0.00000000E+00
  0.00000000E+00  0.00000000E+00  0.00000000E+00
  0.00000000E+00  0.00000000E+00  0.00000000E+00
  0.00000000E+00  0.00000000E+00  0.00000000E+00
  0.00000000E+00  0.00000000E+00  0.00000000E+00
  0.00000000E+00  0.00000000E+00  0.00000000E+00
  0.00000000E+00  0.00000000E+00  0.00000000E+00
  0.00000000E+00  0.00000000E+00  0.00000000E+00
  0.00000000E+00  0.00000000E+00  0.00000000E+00
  0.00000000E+00  0.00000000E+00  0.00000000E+00
  0.00000000E+00  0.00000000E+00  0.00000000E+00
  0.00000000E+00  0.00000000E+00  0.00000000E+00
  0.00000000E+00  0.00000000E+00  0.00000000E+00
  0.00000000E+00  0.00000000E+00  0.00000000E+00
  0.00000000E+00  0.00000000E+00  0.00000000E+00
  0.00000000E+00  0.00000000E+00  0.00000000E+00
  0.00000000E+00  0.00000000E+00  0.00000000E+00
  0.00000000E+00  0.00000000E+00  0.00000000E+00
  0.00000000E+00  0.00000000E+00  0.00000000E+00
  0.00000000E+00  0.00000000E+00  0.00000000E+00
  0.00000000E+00  0.00000000E+00  0.00000000E+00
  0.00000000E+00  0.00000000E+00  0.00000000E+00
  0.00000000E+00  0.00000000E+00  0.00000000E+00
