Ca2 Co4 S6 O24                          
   1.00000000000000     
     7.6363820000000002    0.0530110000000000    4.4644100000000000
     2.6593819999999999    7.0228429999999999    4.5270330000000003
     0.2119990000000000   -0.0031390000000000    8.8259249999999998
   Ca   Co   S    O 
     2     4     6    24
Direct
  0.4306772021909038  0.5691312198952236  0.4984821487498135
  0.9902685193675667  0.0146225650593079 -0.0119114363837523
  0.6416041960662575  0.6474824746831761  0.6600602118558851
  0.1413645673164964  0.1517515013933805  0.1484524485334527
  0.8496038551083521  0.8549127008943573  0.8412698471542317
  0.3536044017895348  0.3499316907727525  0.3491293246980281
  0.9569631294428486  0.2489293236517238  0.5415028908407676
  0.4398449857836251  0.0511714338189532  0.7510374850253935
  0.5492144684887756  0.9550186798978133  0.2467177546614320
  0.7401107937468627  0.4571815325092459  0.0518885110256688
  0.2473599186358244  0.5487457938024219  0.9549455543736329
  0.0329379996499634  0.7616736016612922  0.4494164072742039
  0.4206586405467314  0.5428199897862175  0.7812722301209013
  0.8800593479103821  0.2629004000207628  0.1030805801808862
  0.7991530412570240  0.4317997474176362  0.5410349844483464
  0.0843665066954920  0.8995999957258639  0.2558073947303337
  0.5575763468137030  0.7859060092697991  0.4223890080334263
  0.2486933667342460  0.1021200799147693  0.8972773374984527
  0.7333605639565816  0.9103350702396152  0.0939326777126036
  0.1885436949690635  0.5742591353447843  0.4545975559262827
  0.1016495226339340  0.7399109650723450  0.9073664927778954
  0.4472095589773885  0.2249955595431560  0.5789121430600015
  0.9046354816363749  0.1025306130267134  0.7316757763576247
  0.5649470674192365  0.4764655478156960  0.2211413461628833
  0.9822414644349805  0.1968246509326822  0.3957938924282005
  0.4530364134453743  0.8977069030741457  0.7166972296823076
  0.3928218567617220  0.9802768606416962  0.2104014602193053
  0.6999913504925391  0.4732112976369696  0.9017119898088646
  0.1869700368650179  0.4011866309195549  0.9983054338563291
  0.8537932859061996  0.7562180161293768  0.4927959491247510
  0.1307454229341544  0.2538658075995509  0.5184365906637155
  0.5863655729037743  0.9943526342973750  0.8182445307116764
  0.5292111172594791  0.1214488347142366  0.2640132476553342
  0.8149241138167803  0.5994595899906314 -0.0060803482937164
  0.2841149620643926  0.5274487541856741  0.1086980196311731
  0.0298115458823682  0.8123528008860340  0.5860377894718370
 
             NaN             NaN             NaN
             NaN             NaN             NaN
             NaN             NaN             NaN
             NaN             NaN             NaN
             NaN             NaN             NaN
             NaN             NaN             NaN
             NaN             NaN             NaN
             NaN             NaN             NaN
             NaN             NaN             NaN
             NaN             NaN             NaN
             NaN             NaN             NaN
             NaN             NaN             NaN
             NaN             NaN             NaN
             NaN             NaN             NaN
             NaN             NaN             NaN
             NaN             NaN             NaN
             NaN             NaN             NaN
             NaN             NaN             NaN
             NaN             NaN             NaN
             NaN             NaN             NaN
             NaN             NaN             NaN
             NaN             NaN             NaN
             NaN             NaN             NaN
             NaN             NaN             NaN
             NaN             NaN             NaN
             NaN             NaN             NaN
             NaN             NaN             NaN
             NaN             NaN             NaN
             NaN             NaN             NaN
             NaN             NaN             NaN
             NaN             NaN             NaN
             NaN             NaN             NaN
             NaN             NaN             NaN
             NaN             NaN             NaN
             NaN             NaN             NaN
             NaN             NaN             NaN
